#package gpu 1
#suffix gpu
#variable rho equal 0.05

units lj
atom_style atomic

lattice fcc 0.975
Lattice spacing in x,y,z = 1.60085 1.60085 1.60085
region box block 0 60 0 30 0 30
create_box 2 box
Created orthogonal box = (0 0 0) to (96.0513 48.0256 48.0256)
  1 by 1 by 1 MPI processor grid
create_atoms 1 box
Created 216000 atoms
  Time spent = 0.0406289 secs
mass 1 4.0
mass 2 0.5


pair_style lj/cut 2.5
pair_coeff 1 1 1.0 1.0 2.5
pair_coeff 2 2 0.5 0.88 2.5
pair_coeff 1 2 0.2 1.0 2.5
#pair_coeff 1 2 1.5 0.8 2.5
pair_modify mix geometric
neigh_modify every 1 delay 0 check yes

variable R equal 12
region cylinder1 cylinder x $(0.5*ly) $(0.5*lz) $R EDGE EDGE units box
region cylinder1 cylinder x 24.012813670346833561 $(0.5*lz) $R EDGE EDGE units box
region cylinder1 cylinder x 24.012813670346833561 24.012813670346833561 $R EDGE EDGE units box
region cylinder1 cylinder x 24.012813670346833561 24.012813670346833561 12 EDGE EDGE units box

group cylinder1 region cylinder1
41820 atoms in group cylinder1
variable V equal PI*v_R*v_R*lx
# variable rho equal 0.1
variable natoms equal $V*${rho}
variable natoms equal 43452.5639148185*${rho}
variable natoms equal 43452.5639148185*0.15
variable natoms_in_cylinder equal count(cylinder1)
variable delete_fraction equal (${natoms_in_cylinder}-${natoms})/${natoms_in_cylinder}
variable delete_fraction equal (41820-${natoms})/${natoms_in_cylinder}
variable delete_fraction equal (41820-6517.88458722277)/${natoms_in_cylinder}
variable delete_fraction equal (41820-6517.88458722277)/41820
set group cylinder1 type 2
  41820 settings made for type
delete_atoms porosity cylinder1 ${delete_fraction} 12345
delete_atoms porosity cylinder1 0.84414431881342 12345
Deleted 35253 atoms, new total = 180747
#delete_atoms region cylinder1

region cylinder2 cylinder x $(0.5*ly) $(0.5*lz) $(v_R+6) EDGE EDGE units box
region cylinder2 cylinder x 24.012813670346833561 $(0.5*lz) $(v_R+6) EDGE EDGE units box
region cylinder2 cylinder x 24.012813670346833561 24.012813670346833561 $(v_R+6) EDGE EDGE units box
region cylinder2 cylinder x 24.012813670346833561 24.012813670346833561 18 EDGE EDGE units box
region cylinder3 cylinder x $(0.5*ly) $(0.5*lz) $(v_R+9) EDGE EDGE units box
region cylinder3 cylinder x 24.012813670346833561 $(0.5*lz) $(v_R+9) EDGE EDGE units box
region cylinder3 cylinder x 24.012813670346833561 24.012813670346833561 $(v_R+9) EDGE EDGE units box
region cylinder3 cylinder x 24.012813670346833561 24.012813670346833561 21 EDGE EDGE units box
group cylinder2 region cylinder2
60567 atoms in group cylinder2
group cylinder3 region cylinder3
94407 atoms in group cylinder3

group nve region cylinder3
94407 atoms in group nve
group langevin subtract cylinder3 cylinder2
33840 atoms in group langevin
group frozen subtract all cylinder3
86340 atoms in group frozen

region force cylinder x $(0.5*ly) $(0.5*lz) $(v_R-1) EDGE EDGE units box
region force cylinder x 24.012813670346833561 $(0.5*lz) $(v_R-1) EDGE EDGE units box
region force cylinder x 24.012813670346833561 24.012813670346833561 $(v_R-1) EDGE EDGE units box
region force cylinder x 24.012813670346833561 24.012813670346833561 11 EDGE EDGE units box
group gas type 2
6567 atoms in group gas

fix nve nve nve
fix langevin langevin langevin 0.50 0.50 1.0 12345 zero yes

variable gascount equal count(gas)

variable dP equal 0.001
variable force equal v_dP/v_rho

velocity all create 0.1 87287
velocity frozen set 0 0 0

compute chunk all chunk/atom bin/cylinder x lower $(lx) $(0.5*ly) $(0.5*lz) 0 $(v_R+3) 80 units box
compute chunk all chunk/atom bin/cylinder x lower 96.051254681387334244 $(0.5*ly) $(0.5*lz) 0 $(v_R+3) 80 units box
compute chunk all chunk/atom bin/cylinder x lower 96.051254681387334244 24.012813670346833561 $(0.5*lz) 0 $(v_R+3) 80 units box
compute chunk all chunk/atom bin/cylinder x lower 96.051254681387334244 24.012813670346833561 24.012813670346833561 0 $(v_R+3) 80 units box
compute chunk all chunk/atom bin/cylinder x lower 96.051254681387334244 24.012813670346833561 24.012813670346833561 0 15 80 units box

compute displacement all displace/atom
compute mean_displacement nve reduce ave c_displacement[4]

compute vmax all reduce max vx
variable volume equal count(gas)/v_V

thermo_style custom step time temp c_mean_displacement v_volume v_force c_vmax dt spcpu cpuremain
thermo 100

compute keAtom all ke/atom
dump dump all custom 1000 trajectory.bin id type x y z c_keAtom

fix flow gas addforce v_force 0.0 0.0
run 5000
No /omp style for force computation currently active
Per MPI rank memory allocation (min/avg/max) = 90.73 | 90.73 | 90.73 Mbytes
Step Time Temp c_mean_displacement v_volume v_force c_vmax Dt S/CPU CPULeft 
       0            0  0.052240754            0   0.15113032 0.0066666667   0.77506977        0.005            0            0 
     100          0.5  0.067727325  0.072851199   0.15113032 0.0066666667    1.9922956        0.005    134.51763      36.4265 
     200            1  0.098190903   0.12473263   0.15113032 0.0066666667    2.7233566        0.005    133.02523    35.883219 
     300          1.5    0.1139709   0.17916888   0.15113032 0.0066666667    2.2865542        0.005    133.94756    35.119887 
     400            2   0.12675911   0.22659991   0.15113032 0.0066666667    2.6737863        0.005    132.80969    34.438498 
     500          2.5   0.13467347   0.26884871   0.15113032 0.0066666667    2.5989845        0.005    133.02561    33.717492 
     600            3   0.13975528   0.29804765   0.15113032 0.0066666667    2.9988481        0.005     132.1456    33.022946 
     700          3.5   0.14601803   0.31078202   0.15113032 0.0066666667    3.4502089        0.005    132.71841    32.290567 
     800            4   0.15395264   0.31077778   0.15113032 0.0066666667    2.9658272        0.005    132.64022    31.555246 
     900          4.5   0.16086994   0.30169949   0.15113032 0.0066666667    2.9957146        0.005    134.87033    30.759002 
    1000            5   0.16515559   0.28860601   0.15113032 0.0066666667    2.9670098        0.005    136.36128    29.941288 
    1100          5.5   0.16912175   0.27817915   0.15113032 0.0066666667    3.2312297        0.005    134.23938    29.180013 
    1200            6    0.1718909   0.27565638   0.15113032 0.0066666667    3.1474214        0.005    139.06309    28.339634 
    1300          6.5   0.17421088   0.28176281   0.15113032 0.0066666667    2.9510859        0.005    138.74145    27.522658 
    1400            7   0.17767909   0.29192682   0.15113032 0.0066666667    2.9953891        0.005    138.83781    26.718141 
    1500          7.5   0.18089874   0.30289691   0.15113032 0.0066666667    3.0918183        0.005    138.52989    25.928593 
    1600            8   0.18539094   0.31292647   0.15113032 0.0066666667    2.6787266        0.005    134.79578    25.189998 
    1700          8.5   0.19039494    0.3233372   0.15113032 0.0066666667    2.8511074        0.005    138.05899     24.41698 
    1800            9   0.19473181   0.33502567   0.15113032 0.0066666667    3.5087403        0.005    137.63622     23.65333 
    1900          9.5   0.19986418   0.34854364   0.15113032 0.0066666667    3.2128536        0.005    137.02684    22.898855 
    2000           10   0.20287163   0.36425682   0.15113032 0.0066666667    3.4514128        0.005    134.68319    22.165898 
    2100         10.5   0.20634661   0.38146803   0.15113032 0.0066666667    3.2544639        0.005    134.96754    21.429873 
    2200           11   0.20805538   0.39820137   0.15113032 0.0066666667    3.2620455        0.005     134.3591    20.697673 
    2300         11.5   0.20980397   0.41180914   0.15113032 0.0066666667    3.3614497        0.005     138.0316    19.941179 
    2400           12   0.21178978   0.42156952   0.15113032 0.0066666667    3.3253746        0.005    137.96848    19.187711 
    2500         12.5    0.2130601   0.42714381   0.15113032 0.0066666667    2.9726118        0.005    136.93116    18.442026 
    2600           13   0.21461591   0.42982817   0.15113032 0.0066666667     3.114661        0.005    135.12112    17.706558 
    2700         13.5   0.21580726   0.43037388   0.15113032 0.0066666667    3.8160218        0.005    136.18467    16.965823 
    2800           14   0.21650539   0.43053026   0.15113032 0.0066666667    3.1177532        0.005    133.50012     16.23715 
    2900         14.5   0.21744361   0.43161991   0.15113032 0.0066666667     3.365943        0.005    136.78767    15.494034 
    3000           15   0.21901596   0.43389956   0.15113032 0.0066666667    3.7481864        0.005    133.96027    14.762009 
    3100         15.5   0.22166484   0.43859801   0.15113032 0.0066666667    3.2287974        0.005    135.11141    14.025152 
    3200           16    0.2227251   0.44550955   0.15113032 0.0066666667    3.2572643        0.005     135.6298      13.2865 
    3300         16.5   0.22471606   0.45324985   0.15113032 0.0066666667    3.1337043        0.005    139.06041     12.53856 
    3400           17   0.22575035   0.46278125   0.15113032 0.0066666667    3.5862706        0.005     135.3189    11.801672 
    3500         17.5   0.22766931   0.47196304   0.15113032 0.0066666667    3.3376678        0.005    134.78252    11.065923 
    3600           18   0.22963203   0.48150209   0.15113032 0.0066666667    3.4958381        0.005    133.47106    10.332667 
    3700         18.5   0.23088285   0.49114527   0.15113032 0.0066666667    2.9083961        0.005    132.72862     9.600019 
    3800           19   0.23262582   0.50053234   0.15113032 0.0066666667    3.2439673        0.005    137.47805    8.8580589 
    3900         19.5   0.23378338   0.50990698   0.15113032 0.0066666667    3.2847851        0.005    135.22375    8.1202663 
    4000           20   0.23438948   0.51907676   0.15113032 0.0066666667    3.7501141        0.005    133.39219     7.384926 
    4100         20.5   0.23507942   0.52781349   0.15113032 0.0066666667    3.6010767        0.005    133.74762    6.6484495 
    4200           21   0.23679049   0.53609189   0.15113032 0.0066666667    3.3108858        0.005    137.36337    5.9076909 
    4300         21.5   0.23629379   0.54478194   0.15113032 0.0066666667    4.3557899        0.005    134.75762    5.1698175 
    4400           22   0.23834606   0.55151838   0.15113032 0.0066666667    4.2682848        0.005    134.93003    4.4316239 
    4500         22.5   0.23805073   0.55766516   0.15113032 0.0066666667    4.2362839        0.005    135.53276    3.6929337 
    4600           23   0.23835674   0.56302232   0.15113032 0.0066666667    3.8312693        0.005    136.09294     2.954017 
    4700         23.5   0.23920223   0.56683866   0.15113032 0.0066666667    4.0423744        0.005     135.0242     2.215647 
    4800           24   0.24001685   0.57115491   0.15113032 0.0066666667    4.3594708        0.005    134.52104    1.4772993 
    4900         24.5   0.24008215   0.57649937   0.15113032 0.0066666667    3.4100681        0.005    132.75101   0.73894841 
    5000           25   0.24070412    0.5834107   0.15113032 0.0066666667    3.6371943        0.005    130.81797            0 
Loop time of 36.9729 on 4 procs for 5000 steps with 180747 atoms

Performance: 58421.155 tau/day, 135.234 timesteps/s
247.6% CPU use with 1 MPI tasks x 4 OpenMP threads

MPI task timing breakdown:
Section |  min time  |  avg time  |  max time  |%varavg| %total
---------------------------------------------------------------
Pair    | 15.738     | 15.738     | 15.738     |   0.0 | 42.57
Neigh   | 0.2627     | 0.2627     | 0.2627     |   0.0 |  0.71
Comm    | 3.9476     | 3.9476     | 3.9476     |   0.0 | 10.68
Output  | 0.15527    | 0.15527    | 0.15527    |   0.0 |  0.42
Modify  | 13.604     | 13.604     | 13.604     |   0.0 | 36.79
Other   |            | 3.265      |            |       |  8.83

Nlocal:    180747 ave 180747 max 180747 min
Histogram: 1 0 0 0 0 0 0 0 0 0
Nghost:    67031 ave 67031 max 67031 min
Histogram: 1 0 0 0 0 0 0 0 0 0
Neighs:    0 ave 0 max 0 min
Histogram: 1 0 0 0 0 0 0 0 0 0

Total # of neighbors = 0
Ave neighs/atom = 0
Neighbor list builds = 603
Dangerous builds = 0

reset_timestep 0
fix vx all ave/chunk 10 10000 100000 chunk vx ave running file velocity.txt

fix dt all dt/reset 10 NULL NULL 0.05 units box

run 100000
No /omp style for force computation currently active
Per MPI rank memory allocation (min/avg/max) = 100.7 | 100.7 | 100.7 Mbytes
Step Time Temp c_mean_displacement v_volume v_force c_vmax Dt S/CPU CPULeft 
       0           25   0.24070412    0.5834107   0.15113032 0.0066666667    3.6371943  0.011946216            0            0 
     100    26.211109   0.24202302   0.60216265   0.15113032 0.0066666667     3.948026  0.012310857    112.23963    890.06092 
     200    27.432782   0.24380507   0.61986186   0.15113032 0.0066666667    4.0282168  0.011890766    110.68754    895.40357 
     300    28.610914   0.24530645   0.63659025   0.15113032 0.0066666667    3.4585881  0.012168544    112.48507    891.78387 
     400    29.792756   0.24732416   0.65508228   0.15113032 0.0066666667    3.6351009  0.012151252    111.75843    890.96927 
     500    30.943715   0.24695011   0.67369495   0.15113032 0.0066666667    3.1365171  0.012872843    113.01234    888.14655 
     600    32.134421   0.24739898   0.68885527   0.15113032 0.0066666667    3.8168465  0.012435187    112.99307     885.9951 
     700    33.331075   0.24806459   0.70358712   0.15113032 0.0066666667    3.4935223   0.01162277    111.28362    886.13375 
     800    34.488508   0.24964368    0.7203454   0.15113032 0.0066666667    3.6362808  0.011967174    112.58598    884.72436 
     900    35.669992   0.25025471   0.73777054   0.15113032 0.0066666667    3.6770546  0.012452654    111.55123    884.33789 
    1000    36.855746   0.25143072   0.75559976   0.15113032 0.0066666667    3.6069185  0.012287104    111.53806    883.85991 
    1100    38.003246   0.25108037   0.77301339   0.15113032 0.0066666667    3.9596298  0.011377845    111.20687    883.54589 
    1200     39.13728   0.25337373   0.78910381   0.15113032 0.0066666667    3.9976911  0.011320958    111.29067     883.0786 
    1300    40.323436   0.25213914   0.80448292   0.15113032 0.0066666667    3.6667639  0.010965213     111.6667     882.3152 
    1400     41.45602   0.25335114   0.82024122   0.15113032 0.0066666667    3.9231395  0.012273319    113.51951    880.50356 
    1500    42.675112    0.2538423   0.83680664   0.15113032 0.0066666667    3.3092225  0.012506708    113.48277    878.83473 
    1600    43.843973   0.25270929   0.85207138   0.15113032 0.0066666667    3.6187258  0.011803172    113.72916    877.14695 
    1700    44.978824   0.25427397   0.86680432   0.15113032 0.0066666667     4.477999  0.011107768    112.09091    876.29731 
    1800    46.121661    0.2552043   0.88369703   0.15113032 0.0066666667    3.8022433  0.010949591    112.56975    875.23603 
    1900    47.235405   0.25472243   0.90037485   0.15113032 0.0066666667    3.4352657 0.0095820104    112.36914    874.27479 
    2000    48.329937   0.25532647   0.91653082   0.15113032 0.0066666667     3.600777  0.011129491    110.65559    873.99594 
    2100    49.455685   0.25461455   0.93284046   0.15113032 0.0066666667    3.6256868   0.01173253    113.07447    872.75636 
    2200    50.605013   0.25516931   0.94830948   0.15113032 0.0066666667    3.5495953  0.011536174    114.38336    871.09918 
    2300     51.74721   0.25467735   0.96456214   0.15113032 0.0066666667    3.6590062  0.010682968    112.81167    870.02746 
    2400    52.881883    0.2544299   0.98213335   0.15113032 0.0066666667    3.5813227  0.011118315    112.82633    868.96651 
    2500    53.966563    0.2560143   0.99825779   0.15113032 0.0066666667    3.8355693  0.010539801    113.26889    867.78447 
    2600    55.052989   0.25636809    1.0133402   0.15113032 0.0066666667    3.5143991  0.011402288     112.4001    866.88109 
    2700    56.212178   0.25574148    1.0311006   0.15113032 0.0066666667    3.7370602  0.011128755    113.80485    865.58296 
    2800    57.347753   0.25644174    1.0460703   0.15113032 0.0066666667    3.8544752  0.011248501    113.02514    864.52523 
    2900    58.450488   0.25811417    1.0610366   0.15113032 0.0066666667    3.8507209  0.010164441    112.79068      863.541 
    3000    59.562956   0.25801132    1.0771814   0.15113032 0.0066666667     4.776103 0.0099927814    113.39181    862.41132 
    3100    60.570066   0.25691159    1.0920165   0.15113032 0.0066666667    4.4875821  0.010543726    112.00126    861.63989 
    3200    61.697622   0.25775395    1.1085753   0.15113032 0.0066666667    3.8777447  0.011915155    112.98659     860.6253 
    3300    62.833196   0.25709684    1.1248505   0.15113032 0.0066666667    3.5584843  0.010921484    114.15405    859.35333 
    3400    63.923617   0.25739059    1.1413582   0.15113032 0.0066666667    3.4962113  0.010898996     112.8681    858.38822 
    3500    65.036683   0.25715708    1.1579672   0.15113032 0.0066666667    3.9407221  0.010717016    112.08513    857.59828 
    3600    66.177977   0.25712783    1.1762285   0.15113032 0.0066666667    4.1381537  0.010764894    112.35854    856.74453 
    3700    67.227197   0.25727608    1.1935553   0.15113032 0.0066666667    4.0188121  0.011540779    113.97141      855.561 
    3800     68.35004   0.25780106     1.211219   0.15113032 0.0066666667     3.895109  0.011417298    111.64277    854.85689 
    3900    69.456299   0.25837311    1.2298443   0.15113032 0.0066666667    3.7369769  0.010577241    111.26071    854.21875 
    4000    70.565288   0.25905181    1.2457734   0.15113032 0.0066666667     3.622241  0.011964647    111.73896    853.47525 
    4100    71.699799   0.25852254    1.2624715   0.15113032 0.0066666667    4.0736238  0.010733135    110.85429    852.89142 
    4200    72.806338   0.25793981    1.2804046   0.15113032 0.0066666667    3.6187875  0.010951616    114.39528    851.65552 
    4300    73.803253   0.25905968    1.2960284   0.15113032 0.0066666667    3.9026328     0.010179    112.08953    850.83663 
    4400    74.806624   0.25908217    1.3121114   0.15113032 0.0066666667    3.6983668 0.0095780434    114.38913    849.62475 
    4500     75.87123   0.25978899    1.3286766   0.15113032 0.0066666667    3.7931067  0.010973646    114.43126    848.42106 
    4600    76.937949   0.25988917    1.3454096   0.15113032 0.0066666667    3.8851865 0.0095291643    111.85706    847.64878 
    4700    78.087665   0.25834636    1.3625294   0.15113032 0.0066666667    4.0537582  0.011523732    114.26588    846.48919 
    4800    79.194932   0.25788954    1.3791205   0.15113032 0.0066666667    4.0506245  0.011998388    110.85564     845.8754 
    4900    80.295135   0.25880618    1.3959932   0.15113032 0.0066666667    4.1010965  0.010883445    112.61098    844.97695 
    5000     81.38265   0.25871081    1.4123892   0.15113032 0.0066666667    4.1601386  0.010444282    112.25573     844.1323 
    5100    82.476351   0.25922462    1.4284198   0.15113032 0.0066666667    4.4473369 0.0088575767    111.64952    843.37585 
    5200    83.515015   0.26018195    1.4433196   0.15113032 0.0066666667    4.0507757  0.011165734    115.90039    842.01517 
    5300    84.619702   0.25926833    1.4598851   0.15113032 0.0066666667    4.0898407  0.010922368    113.48959    841.00073 
    5400    85.721051   0.25985491    1.4768465   0.15113032 0.0066666667    4.0176405  0.011125327    111.53047    840.26242 
    5500    86.854325   0.25950351    1.4943495   0.15113032 0.0066666667    3.7533009  0.010771174    112.35451    839.40534 
    5600    87.948645   0.25944488    1.5125558   0.15113032 0.0066666667    3.7296963  0.011041985    115.12525    838.18599 
    5700    89.044395   0.25979582    1.5294739   0.15113032 0.0066666667    4.0443882  0.010588229    112.95978    837.25446 
    5800    90.129261   0.25947889    1.5470261   0.15113032 0.0066666667    4.1416487  0.010420729    111.56331    836.50448 
    5900    91.186781   0.26025829    1.5639167   0.15113032 0.0066666667    3.8780163  0.011143768    111.35955    835.77569 
    6000    92.282816   0.25925639    1.5816707   0.15113032 0.0066666667    3.8689418 0.0093691874    110.94692    835.09359 
    6100    93.263035   0.25952962    1.5976168   0.15113032 0.0066666667    4.4951904 0.0099497021    113.90248    834.04427 
    6200    94.385183   0.25923085     1.615048   0.15113032 0.0066666667    4.0786731  0.010526564    113.63173    833.03214 
    6300    95.515897   0.25976165    1.6316513   0.15113032 0.0066666667    4.6606161  0.010518585    114.14038    831.96587 
    6400    96.621369   0.25955952    1.6496658   0.15113032 0.0066666667    3.7469014  0.010972899    112.71823    831.06719 
    6500    97.693765   0.26010184    1.6673747   0.15113032 0.0066666667    4.1966529  0.010459717    112.43408    830.20114 
    6600    98.790167   0.25993949    1.6871157   0.15113032 0.0066666667    3.7123923  0.011548435    113.11487    829.25862 
    6700    99.953695   0.26019065    1.7064698   0.15113032 0.0066666667    3.7851084   0.01177288    112.08902     828.4305 
    6800    101.06542   0.25926642    1.7256961   0.15113032 0.0066666667    3.7889385  0.010688601    112.55924    827.54944 
    6900    102.15056   0.25911868    1.7433354   0.15113032 0.0066666667    3.8014386  0.010526301    112.66758    826.65662 
    7000    103.22295   0.26012849     1.760585   0.15113032 0.0066666667    3.7962814  0.010914305    113.85953    825.64053 
    7100    104.33679   0.25908311    1.7792721   0.15113032 0.0066666667    4.2106472  0.010807231     111.9014     824.8294 
    7200    105.39664   0.26020416    1.7977083   0.15113032 0.0066666667     4.073249  0.010301599    113.48882    823.85486 
    7300    106.43981   0.25942998    1.8148328   0.15113032 0.0066666667    3.9278758  0.010562729    113.26849    822.90464 
    7400     107.4994   0.26041325     1.831613   0.15113032 0.0066666667    3.8575983  0.010660665     111.6747    822.11394 
    7500    108.53928   0.26074456    1.8488083   0.15113032 0.0066666667    3.7482285 0.0098262284    115.19449    820.98297 
    7600    109.59773   0.25994733    1.8677398   0.15113032 0.0066666667    3.5139109  0.010786677    115.70513    819.81235 
    7700    110.69508   0.25953072    1.8884242   0.15113032 0.0066666667    3.5994821  0.011693459    115.08671    818.70535 
    7800    111.78958   0.26085066    1.9077709   0.15113032 0.0066666667     3.651326  0.010911701    114.22306    817.68212 
    7900    112.90391   0.25916936    1.9289956   0.15113032 0.0066666667    3.6255265  0.011843087    115.12607    816.58256 
    8000    114.05803   0.26055038    1.9494181   0.15113032 0.0066666667    3.8611887  0.011141454    112.20612    815.74874 
    8100    115.17682    0.2609842     1.968126   0.15113032 0.0066666667    4.1380038  0.011063271    113.69851    814.78077 
    8200    116.25136   0.26017109    1.9861529   0.15113032 0.0066666667      3.86829  0.010259951    113.79828    813.80633 
    8300    117.34011   0.26010305    2.0053851   0.15113032 0.0066666667    3.5490741   0.01021994    115.31655    812.70636 
    8400    118.39771   0.26170387    2.0231243   0.15113032 0.0066666667    3.6288336   0.01038807    115.39895    811.60519 
    8500    119.39101   0.26057896    2.0402178   0.15113032 0.0066666667    3.8786972  0.010451282    116.12015    810.45159 
    8600    120.41051   0.26122331    2.0567829   0.15113032 0.0066666667    4.3129041  0.010817193    115.30023     809.3699 
    8700    121.48415   0.26092262    2.0728725   0.15113032 0.0066666667    3.6376631  0.011459759    113.98755    808.39795 
    8800     122.6063   0.26131711     2.090567   0.15113032 0.0066666667    3.6770157  0.011543144    115.95572    807.27382 
    8900    123.71211   0.26160488    2.1085644   0.15113032 0.0066666667    4.1919225  0.010728503    112.95327    806.39022 
    9000    124.77763   0.26140438    2.1262529   0.15113032 0.0066666667    3.5281229  0.010935121    113.96426    805.42716 
    9100    125.83052   0.26059211    2.1421986   0.15113032 0.0066666667    4.1031604 0.0095644733    113.60385     804.4938 
    9200    126.81271   0.26117952    2.1565613   0.15113032 0.0066666667     3.639792 0.0095241148    114.97263    803.45817 
    9300    127.75658   0.26002417    2.1706017   0.15113032 0.0066666667    3.9093158 0.0091777467    116.10707    802.34322 
    9400     128.7551   0.26124672    2.1861332   0.15113032 0.0066666667    3.3180651  0.010838512     115.1164    801.30511 
    9500    129.86528   0.26171523    2.2033483   0.15113032 0.0066666667    4.0334899  0.011570088    113.89534    800.35928 
    9600     130.8975   0.26112313    2.2188507   0.15113032 0.0066666667    4.4302151  0.010258583    116.16157    799.25357 
    9700    132.01353   0.26060796    2.2350905   0.15113032 0.0066666667     4.001188  0.011074026      114.881    798.24223 
    9800    133.15582   0.26155227    2.2513857   0.15113032 0.0066666667    3.5505774  0.011552468    117.31968    797.06724 
    9900    134.26786   0.26249823     2.268278   0.15113032 0.0066666667    4.1751106  0.010894649    115.28425    796.03572 
   10000    135.40346   0.26200616    2.2855335   0.15113032 0.0066666667    4.0161044  0.011879586    114.86558    795.03594 
   10100    136.49822    0.2621371    2.3024658   0.15113032 0.0066666667    3.6128386  0.010522784    113.82493    794.10957 
   10200    137.53224   0.26154403    2.3172279   0.15113032 0.0066666667    4.0197211 0.0094082292    116.65864    792.99625 
   10300    138.49365   0.26256674    2.3304962   0.15113032 0.0066666667    3.5841923  0.011326504    114.36973    792.03731 
   10400    139.59247   0.26240178    2.3460162   0.15113032 0.0066666667    3.4538242  0.010989048    114.63252    791.06273 
   10500    140.72457   0.26113181    2.3635486   0.15113032 0.0066666667    4.1469297   0.01055485     115.0482    790.06323 
   10600    141.83185   0.26203048    2.3776391   0.15113032 0.0066666667     3.824968  0.010216971    114.96564    789.07145 
   10700    142.94938   0.26063348    2.3927395   0.15113032 0.0066666667    4.1142711  0.011379431    113.63509    788.16695 
   10800    144.08792   0.26063408    2.4071659   0.15113032 0.0066666667    4.0045403  0.011845534    115.73779    787.13085 
   10900      145.206   0.26092965      2.42161   0.15113032 0.0066666667    4.0523597  0.010580825    115.10604    786.13668 
   11000    146.27706   0.26211572    2.4361921   0.15113032 0.0066666667    3.8892317  0.010880562    113.36199    785.25293 
   11100    147.39359   0.26154057     2.452501   0.15113032 0.0066666667    3.8168936  0.011512315    112.39654    784.42989 
   11200    148.53561   0.26123522    2.4705252   0.15113032 0.0066666667    3.9592931  0.011193574    115.15354    783.43678 
   11300    149.64802   0.26145749     2.486841   0.15113032 0.0066666667    3.7627742   0.01135487    114.23569    782.50064 
   11400    150.78934   0.26101225    2.5047067   0.15113032 0.0066666667    3.8051445  0.010286403    117.39142    781.38267 
   11500      151.816   0.26102309     2.520156   0.15113032 0.0066666667    3.8622939  0.011427284    114.15473    780.45521 
   11600      152.896   0.26149061    2.5368433   0.15113032 0.0066666667    3.8344664  0.010546378    113.23901    779.58262 
   11700    154.00562    0.2615482    2.5539826   0.15113032 0.0066666667    3.8777641  0.011406786    115.57941    778.57489 
   11800    155.09148   0.26134419    2.5713699   0.15113032 0.0066666667    3.7352567  0.010953698    114.98017    777.60329 
   11900    156.19873   0.26062643    2.5894765   0.15113032 0.0066666667    3.8830908  0.010979114    113.93352    776.69255 
   12000    157.33176   0.26051952    2.6073343   0.15113032 0.0066666667    3.7731313  0.011136369    112.60717    775.85817 
   12100    158.44271   0.26199924    2.6257604   0.15113032 0.0066666667    4.0876682   0.01134032    113.91987    774.94856 
   12200    159.58697   0.26095484     2.644254   0.15113032 0.0066666667    3.5962669  0.011624826    115.13217    773.97296 
   12300    160.68398   0.26181462    2.6614852   0.15113032 0.0066666667    3.7465485  0.010547419    116.09817    772.94757 
   12400    161.78482    0.2606413    2.6796692   0.15113032 0.0066666667    3.7885881  0.011009841    113.85929    772.04448 
   12500     162.8784   0.26132333    2.6960325   0.15113032 0.0066666667    3.7512666  0.010933069    112.72038     771.2039 
   12600    163.98383   0.26230207    2.7135803   0.15113032 0.0066666667    3.6889322  0.010845078     114.8136    770.25039 
   12700    165.09973   0.26113044    2.7304448   0.15113032 0.0066666667    3.9944242  0.011848461    115.38644    769.26846 
   12800    166.20774   0.26198591    2.7474083   0.15113032 0.0066666667    3.8246062  0.010256084    114.76733    768.32018 
   12900    167.24542   0.26235898    2.7639268   0.15113032 0.0066666667    3.8880755  0.010884354    114.82479    767.37015 
   13000    168.31863   0.26148756    2.7823906   0.15113032 0.0066666667    4.3182538  0.010533594    112.12963    766.56142 
   13100    169.38044   0.26188658    2.8005256   0.15113032 0.0066666667    4.2725437  0.010247029    116.18329    765.54502 
   13200    170.40243   0.26209982    2.8168776   0.15113032 0.0066666667    3.8660644  0.011180556     115.8252    764.54847 
   13300    171.48884   0.26182084     2.834805   0.15113032 0.0066666667    3.9940373  0.011494986     114.7285    763.60773 
   13400    172.57818   0.26189877    2.8523558   0.15113032 0.0066666667    3.9447506  0.010786097    115.34211    762.63805 
   13500    173.60497   0.26103907    2.8686702   0.15113032 0.0066666667    3.7231213  0.010491649    111.55435    761.85851 
   13600    174.62913    0.2610151    2.8847145   0.15113032 0.0066666667    4.0750889  0.010327239    113.83818      760.963 
   13700    175.65239   0.26078471     2.900627   0.15113032 0.0066666667     4.546049  0.010273322    116.14967    759.95762 
   13800    176.66412   0.26110424    2.9166243   0.15113032 0.0066666667    4.4855878  0.010249369    114.89261    759.01317 
   13900    177.64033   0.26152542    2.9327166   0.15113032 0.0066666667    4.0260373 0.0099337356    115.26195     758.0525 
   14000    178.61557   0.26090774    2.9500451   0.15113032 0.0066666667    3.8827296 0.0096489782    112.80035    757.20948 
   14100    179.60417    0.2620518    2.9665528   0.15113032 0.0066666667     4.396315  0.010347875     111.4482    756.43137 
   14200    180.57333   0.26145782    2.9808845   0.15113032 0.0066666667    4.3631103 0.0095762357    115.52679    755.46016 
   14300    181.58877   0.26183167    2.9963459   0.15113032 0.0066666667    4.1104725  0.010975203    114.46087    754.53875 
   14400    182.67455   0.26147902    3.0150255   0.15113032 0.0066666667    3.7297168  0.010654034     115.7776    753.55894 
   14500    183.75701   0.26236277    3.0320032   0.15113032 0.0066666667     4.189026  0.010248862    116.11112    752.56609 
   14600    184.80352   0.26121086    3.0496322   0.15113032 0.0066666667    4.0500411  0.010450231    114.71704    751.63627 
   14700    185.87654   0.26224384    3.0664856   0.15113032 0.0066666667    4.4411419  0.009752008    114.60151    750.71234 
   14800    186.93652   0.26131954    3.0840534   0.15113032 0.0066666667    3.8511027  0.011032777    116.65725    749.70058 
   14900    188.01297   0.26148411    3.1015624   0.15113032 0.0066666667     3.849258  0.010327315    113.96726    748.80646 
   15000    189.07102    0.2616891    3.1184653   0.15113032 0.0066666667    3.8915276  0.010281315    113.86939    747.91682 
   15100    190.15462   0.26252136    3.1357911   0.15113032 0.0066666667    3.8222256  0.010997973    111.59682     747.1279 
   15200    191.26287   0.26163087    3.1532452   0.15113032 0.0066666667    3.6966735  0.011651743    116.16736    746.14088 
   15300    192.35009    0.2611398    3.1714417   0.15113032 0.0066666667    4.1752696  0.011174921    116.32275    745.14914 
   15400    193.41886   0.26170933    3.1883267   0.15113032 0.0066666667    4.3542927  0.010790009    114.78803    744.22225 
   15500    194.50134   0.26213042    3.2059294   0.15113032 0.0066666667    4.7734848  0.010016764    112.92189    743.37457 
   15600    195.57272    0.2624557    3.2226815   0.15113032 0.0066666667    4.0051709  0.010875742     114.6229     742.4553 
   15700    196.62845   0.26250511    3.2397604   0.15113032 0.0066666667    4.6046005  0.010769318    112.40995    741.62885 
   15800    197.70221    0.2620449    3.2574421   0.15113032 0.0066666667     4.420951   0.01035657    114.28428    740.72385 
   15900    198.81179    0.2634235    3.2736996   0.15113032 0.0066666667     3.837065  0.011431194    112.25888    739.90273 
   16000    199.94936   0.26266083    3.2907163   0.15113032 0.0066666667    4.2103661  0.011167754    111.83519    739.09845 
   16100    201.03001   0.26266496    3.3069361   0.15113032 0.0066666667    3.8507244  0.010936079    111.55298    738.30485 
   16200    202.10025   0.26225444    3.3239398   0.15113032 0.0066666667    4.0135501  0.010580397    112.92812    737.45351 
   16300    203.19703   0.26157853     3.341525   0.15113032 0.0066666667    3.7945282  0.010510602    116.28324    736.47055 
   16400    204.26019   0.26204308    3.3591246   0.15113032 0.0066666667    4.5078982 0.0098199821    114.43966    735.55972 
   16500    205.33997   0.26192372    3.3769987   0.15113032 0.0066666667    3.5933071 0.0099833218       113.12    734.70092 
   16600    206.40236    0.2613039    3.3940838   0.15113032 0.0066666667    3.7877658  0.010463602    111.79242    733.89456 
   16700    207.48801   0.26134516    3.4128846   0.15113032 0.0066666667     3.903023  0.011412697    112.89219    733.04368 
   16800    208.59115   0.26203033    3.4313531   0.15113032 0.0066666667      3.91367  0.011542004    111.83943    732.23367 
   16900    209.69736   0.26159683    3.4512979   0.15113032 0.0066666667    4.0525631  0.011432114    115.21452    731.29388 
   17000     210.7507   0.26223941    3.4686122   0.15113032 0.0066666667    3.8539304 0.0097737566    110.39806    730.53981 
   17100    211.74781   0.26207577    3.4855589   0.15113032 0.0066666667    3.8829934 0.0096661111    111.74721    729.73094 
   17200    212.74775   0.26374798    3.5032841   0.15113032 0.0066666667     4.823785 0.0094209307    111.52463    728.92968 
   17300    213.75794    0.2624974     3.520232   0.15113032 0.0066666667    3.6912116 0.0097661729    112.01458    728.10856 
   17400    214.79589   0.26264189    3.5384413   0.15113032 0.0066666667    3.8281734  0.011298337    111.55969     727.3039 
   17500    215.88458   0.26126084    3.5567054   0.15113032 0.0066666667    3.6973898  0.011450395     112.9673    726.44554 
   17600    216.96879   0.26085555    3.5749087   0.15113032 0.0066666667    3.7446979  0.010703153    114.42265    725.53416 
   17700    218.00782   0.26208781    3.5924882   0.15113032 0.0066666667     4.290206  0.010116123    113.62422    724.65176 
   17800    219.02422   0.26156212    3.6110651   0.15113032 0.0066666667     4.243025  0.009963946    112.38215     723.8143 
   17900    220.09888   0.26226842    3.6292073   0.15113032 0.0066666667    4.0416662  0.011453463    110.76219    723.03595 
   18000    221.15991   0.26092298    3.6471506   0.15113032 0.0066666667    3.7263112  0.010741766    111.47539     722.2299 
   18100    222.23094   0.26075437    3.6651147   0.15113032 0.0066666667    4.1130054  0.010462154    112.16435    721.39791 
   18200     223.3304    0.2624431    3.6832948   0.15113032 0.0066666667     4.129426  0.010669689    113.35733     720.5231 
   18300    224.43893   0.26167161    3.7016018   0.15113032 0.0066666667    4.0842446   0.01036202    111.07076    719.72928 
   18400    225.53768   0.26216383    3.7201016   0.15113032 0.0066666667    3.6765792  0.011655326     112.4686    718.88469 
   18500    226.62066   0.26111843    3.7380622   0.15113032 0.0066666667    3.6952528  0.010590032     112.8388    718.02676 
   18600    227.69752    0.2625313     3.754973   0.15113032 0.0066666667    3.8006034  0.011469828    112.45862    717.18164 
   18700    228.82565   0.26240382    3.7722409   0.15113032 0.0066666667    4.3053072  0.010381117    110.36675    716.40932 
   18800    229.89458    0.2624288    3.7905645   0.15113032 0.0066666667    4.3221691  0.010968026    114.63013    715.49003 
   18900    230.97642   0.26271885    3.8091397   0.15113032 0.0066666667    3.9991221  0.011191717    113.02602    714.62436 
   19000    232.03755   0.26293273    3.8262109   0.15113032 0.0066666667    4.7955086 0.0097441579    111.38315    713.81412 
   19100    232.99454   0.26196197    3.8417751   0.15113032 0.0066666667    3.9856816  0.010680184    113.02958    712.94758 
   19200    234.07115   0.26168303    3.8602427   0.15113032 0.0066666667     4.396074  0.010942037    112.17251    712.10929 
   19300    235.13018   0.25974994    3.8788045   0.15113032 0.0066666667    4.7442053 0.0098631267    110.12779    711.33966 
   19400    236.12018   0.26112472    3.8968434   0.15113032 0.0066666667    4.8740849 0.0098183247    111.61012     710.5185 
   19500    237.12301   0.26036381    3.9143363   0.15113032 0.0066666667    4.8153294  0.010057006    111.82008    709.68963 
   19600    238.13621   0.26100293    3.9313625   0.15113032 0.0066666667    3.9961528  0.010443658    111.04227    708.88579 
   19700    239.16861   0.26227961    3.9488451   0.15113032 0.0066666667    4.3496935  0.010252423    111.68939    708.05969 
   19800    240.20123   0.26069496     3.967058   0.15113032 0.0066666667    4.0345777 0.0099040179    113.28982    707.18167 
   19900    241.26207   0.26047437    3.9848337   0.15113032 0.0066666667    3.9318846  0.011183402    111.61286    706.35697 
   20000    242.37982   0.26151947    4.0044689   0.15113032 0.0066666667    3.7830187  0.011242158    110.03522    705.58296 
   20100    243.46146   0.26156403    4.0232967   0.15113032 0.0066666667     3.689647  0.010420552    114.70678    704.66046 
   20200    244.48868   0.26259798    4.0409715   0.15113032 0.0066666667     3.791237  0.010218438    112.34037    703.81103 
   20300    245.58204   0.26206821    4.0596922   0.15113032 0.0066666667    3.9470802  0.010408677    111.24708    702.99553 
   20400    246.68025   0.26101745    4.0775491   0.15113032 0.0066666667    3.9223202  0.011276287    114.67799    702.07429 
   20500    247.74166   0.26126981    4.0958039   0.15113032 0.0066666667     4.363341  0.010688478    112.22425    701.22746 
   20600    248.82499   0.26138289    4.1148469   0.15113032 0.0066666667    4.1544404  0.011007967     112.1813    700.38151 
   20700    249.89605   0.26147396    4.1320354   0.15113032 0.0066666667    4.1005352  0.010748179    112.81473    699.51595 
   20800    250.95893   0.26203741    4.1490661   0.15113032 0.0066666667    4.1867853  0.010823721    111.35461    698.69446 
   20900    252.06764   0.26109918    4.1683048   0.15113032 0.0066666667    3.8780982  0.011189675    114.49417    697.77903 
   21000    253.16438   0.26007269    4.1881608   0.15113032 0.0066666667    3.9578994  0.010891528    111.14125    696.96311 
   21100    254.21351   0.26086647    4.2054304   0.15113032 0.0066666667    4.3076095  0.010000559    112.19162    696.11491 
   21200    255.24316   0.26221906    4.2234055   0.15113032 0.0066666667    4.1508677  0.010418815    111.27494    695.29359 
   21300    256.31647   0.26180715    4.2417495   0.15113032 0.0066666667    4.1314417  0.010900056    114.44135    694.37968 
   21400    257.43105   0.26199171    4.2608287   0.15113032 0.0066666667    3.8890741  0.011110831    112.48721     693.5219 
   21500    258.51774   0.26207655    4.2799125   0.15113032 0.0066666667    3.8024115  0.010600892    112.26772    692.67017 
   21600    259.58801   0.26081594    4.2988174   0.15113032 0.0066666667    3.7156308   0.01155658    112.27968    691.81773 
   21700    260.66236   0.26203165    4.3163904   0.15113032 0.0066666667    3.6815189  0.010248782    111.24498    690.99484 
   21800    261.73264   0.26142353    4.3344786   0.15113032 0.0066666667    3.6360226  0.011023758    113.06438    690.11935 
   21900    262.80031   0.26063119    4.3536333   0.15113032 0.0066666667    3.7131315  0.011359478    112.53366    689.25866 
   22000    263.90387   0.26156633     4.372302   0.15113032 0.0066666667    3.8664567  0.010213323     111.0234    688.44058 
   22100    264.98499   0.26153443     4.391328   0.15113032 0.0066666667     3.830469  0.011560445     113.0595    687.56457 
   22200    266.12038   0.26150485     4.411065   0.15113032 0.0066666667    3.6636713  0.011530777    113.96596    686.66383 
   22300    267.20314   0.26112982    4.4288416   0.15113032 0.0066666667    4.2502054  0.010875219    113.73548    685.76949 
   22400    268.33729   0.26232245    4.4479673   0.15113032 0.0066666667    3.8810438  0.011309027    113.69466    684.87638 
   22500    269.43821   0.26219912    4.4669945   0.15113032 0.0066666667    3.7305089  0.010043409    115.04646    683.94779 
   22600    270.49107   0.26166654     4.485233   0.15113032 0.0066666667    3.8633709  0.010796208    111.20563    683.12255 
   22700     271.6201   0.26240699    4.5055291   0.15113032 0.0066666667    3.7337255  0.011437277    114.79698    682.20085 
   22800    272.69177   0.26282225    4.5244063   0.15113032 0.0066666667    3.6658022  0.010571444    112.65181    681.33577 
   22900    273.75774   0.26257125    4.5433046   0.15113032 0.0066666667    3.7517849  0.010490584    114.69838    680.41716 
   23000    274.82349   0.26216019    4.5623745   0.15113032 0.0066666667    3.5454559 0.0094435311    110.83045    679.60082 
   23100    275.88295    0.2620352    4.5810184   0.15113032 0.0066666667    4.0770597  0.011360467    112.52506    678.73851 
   23200    276.98117   0.26245614    4.5993731   0.15113032 0.0066666667    3.9146401  0.010155577    112.04031    677.88869 
   23300    278.02159   0.26077547    4.6178102   0.15113032 0.0066666667    4.2017453  0.011116103    112.44065    677.02805 
   23400    279.15105   0.26087254    4.6369146   0.15113032 0.0066666667    4.0607338  0.011342607    110.58584    676.21599 
   23500    280.25594   0.26213037    4.6553637   0.15113032 0.0066666667    4.0514341  0.010625774    113.10298    675.33763 
   23600    281.31599   0.26248995    4.6746621   0.15113032 0.0066666667    4.3723324 0.0098964617    111.92792    674.48928 
   23700    282.35343   0.26226555    4.6930791   0.15113032 0.0066666667    4.1375116  0.010061597    111.83758    673.64286 
   23800    283.39341   0.26197116    4.7124211   0.15113032 0.0066666667    3.9638616  0.010397277    112.19402    672.78695 
   23900    284.46648   0.26310923    4.7308857   0.15113032 0.0066666667    3.8029048  0.010762425    112.09418    671.93328 
   24000    285.55777   0.26284621    4.7495798   0.15113032 0.0066666667    4.6263816  0.010582597    109.91271    671.13535 
   24100    286.59769   0.26217948    4.7665318   0.15113032 0.0066666667    4.2062286  0.010609856    113.07624    670.25632 
   24200     287.7101   0.26150361    4.7860125   0.15113032 0.0066666667    4.2777321  0.010630435    111.31817    669.42101 
   24300    288.66673   0.26261331     4.802772   0.15113032 0.0066666667    4.0768716 0.0094525714    112.73753    668.54994 
   24400    289.66325    0.2627154    4.8208453   0.15113032 0.0066666667    4.3744857  0.010183117    112.74823    667.67847 
   24500    290.71396   0.26226949    4.8406472   0.15113032 0.0066666667    3.7518386  0.011037604    112.68531    666.80841 
   24600     291.7967   0.26267353    4.8605003   0.15113032 0.0066666667    4.0237847  0.011181538    111.99038    665.95509 
   24700    292.93542   0.26120286    4.8806087   0.15113032 0.0066666667    4.0813922  0.010610283    112.09681    665.09886 
   24800    294.05836   0.26273656     4.899794   0.15113032 0.0066666667    4.2616833  0.010322608    110.70457    664.27636 
   24900    295.15859   0.26278505    4.9189853   0.15113032 0.0066666667    4.6881692  0.010022384    112.26003    663.41546 
   25000    296.18291   0.26287705     4.936422   0.15113032 0.0066666667    4.2946327  0.011099626    112.31741    662.55296 
   25100    297.21162   0.26143449    4.9554087   0.15113032 0.0066666667    3.8413236   0.01037276    113.11896    661.67141 
   25200    298.25734   0.26239867    4.9737655   0.15113032 0.0066666667    3.9183011  0.010351344    109.78503    660.86952 
   25300    299.24786   0.26147226    4.9922306   0.15113032 0.0066666667    4.0983296 0.0097805502    112.55658    660.00055 
   25400    300.25433   0.26223453    5.0111209   0.15113032 0.0066666667      4.10523  0.011032576    110.83956    659.17185 
   25500    301.34205   0.26203635    5.0312219   0.15113032 0.0066666667    3.8843082  0.010576911    111.78357    658.32032 
   25600    302.42356   0.26207527    5.0516812   0.15113032 0.0066666667    3.9235153  0.010204938    113.15979    657.43682 
   25700    303.48926   0.26280593    5.0706924   0.15113032 0.0066666667    3.7237929  0.010378951    113.90833    656.53654 
   25800    304.55903   0.26281932    5.0890878   0.15113032 0.0066666667    3.8987552  0.010729222    113.93311    655.63588 
   25900    305.57974   0.26253382     5.107483   0.15113032 0.0066666667    4.3328301  0.010519855    111.74932    654.78447 
   26000    306.59429   0.26214024    5.1264238   0.15113032 0.0066666667    4.5410334  0.010500305    114.42708    653.87313 
   26100    307.62245   0.26329282    5.1441531   0.15113032 0.0066666667    4.1173533  0.010432007     110.7238    653.04483 
   26200    308.66507   0.26196929    5.1623121   0.15113032 0.0066666667    4.0787473  0.011522768     111.4713     652.1989 
   26300    309.70618   0.26255948    5.1800207   0.15113032 0.0066666667    3.6469353 0.0094169188    111.15321    651.35977 
   26400    310.70717   0.26192378    5.1964983   0.15113032 0.0066666667    3.8129897 0.0098595476    116.16183    650.41205 
   26500    311.74802   0.26341925    5.2125296   0.15113032 0.0066666667     3.557537  0.011327527    113.55651    649.51976 
   26600    312.85914   0.26249181    5.2307735   0.15113032 0.0066666667    4.1333615  0.010893091     111.9803    648.66176 
   26700    313.92678    0.2622079    5.2484707   0.15113032 0.0066666667     4.382469 0.0097766605    111.73199    647.80894 
   26800    314.92034   0.26158955    5.2647117   0.15113032 0.0066666667    4.1555128  0.010981323    111.41948    646.96267 
   26900    315.99464   0.26230359    5.2821783   0.15113032 0.0066666667    4.2972014  0.010428549     113.2277    646.07707 
   27000          317   0.26114496    5.2989002   0.15113032 0.0066666667    4.2076301 0.0094000645    111.59557    645.22641 
   27100    317.95554   0.26243426    5.3145139   0.15113032 0.0066666667    4.3537541 0.0096631912    112.05875    644.36545 
   27200    318.94648   0.26186368    5.3320313   0.15113032 0.0066666667    3.8262959  0.010233654     111.4647    643.51699 
   27300    319.98491   0.26130008    5.3491542   0.15113032 0.0066666667    4.2049261  0.011171398    113.78895    642.61937 
   27400    321.03904   0.26194178    5.3650645   0.15113032 0.0066666667    3.8900346   0.01045568    113.60474    641.72566 
   27500    322.05807   0.26173187    5.3802231   0.15113032 0.0066666667    3.9842164  0.010385775    112.99563    640.84456 
   27600    323.07092    0.2622646    5.3961217   0.15113032 0.0066666667    4.3924323 0.0098044781    114.37878    639.93537 
   27700    324.14277   0.26160842    5.4141671   0.15113032 0.0066666667    3.6121585  0.011271553    111.16979    639.09229 
   27800     325.2258   0.26087975    5.4319276   0.15113032 0.0066666667     3.757274  0.011410109    110.77717    638.25709 
   27900    326.31491   0.26243346    5.4495378   0.15113032 0.0066666667    4.4003078  0.010189389    112.15778    637.39268 
   28000    327.30935   0.26164903    5.4659401   0.15113032 0.0066666667    3.5234276  0.011242373    112.75129    636.51602 
   28100    328.32734   0.26075483    5.4831145   0.15113032 0.0066666667    3.6612902  0.010141469    111.45016    635.66578 
   28200    329.38576   0.26204581    5.5002025   0.15113032 0.0066666667     4.550385  0.010816991    113.93791    634.76532 
   28300    330.44691   0.26114522     5.517181   0.15113032 0.0066666667    4.2623642  0.010138867    112.91067    633.88525 
   28400    331.46959   0.26141921    5.5335228   0.15113032 0.0066666667    3.9414528 0.0097755794    111.18857    633.03973 
   28500    332.45683   0.26085407    5.5498657   0.15113032 0.0066666667    3.8377769   0.01082694    112.79717    632.16165 
   28600     333.5867   0.26055995    5.5690353   0.15113032 0.0066666667    4.1373406  0.011337582    112.69409    631.28553 
   28700    334.65278   0.26255078    5.5872281   0.15113032 0.0066666667    3.8406905 0.0094164684    111.28831    630.43719 
   28800    335.67126   0.26171691    5.6053997   0.15113032 0.0066666667    3.9965773  0.010141037    110.35577    629.60726 
   28900    336.65606   0.26200475    5.6221542   0.15113032 0.0066666667    4.3539059  0.010531897    115.25292    628.68209 
   29000    337.74382    0.2628151    5.6422687   0.15113032 0.0066666667    4.2427755  0.010704087    111.15212    627.83568 
   29100    338.80326   0.26265329    5.6603439   0.15113032 0.0066666667    4.2896691  0.010212147      111.457    626.98291 
   29200    339.86342   0.26304046     5.677203   0.15113032 0.0066666667    4.0319612  0.010493573      110.917    626.14043 
   29300    340.88633   0.26189873    5.6946601   0.15113032 0.0066666667    4.7765395  0.010182734    110.60613    625.30366 
   29400    341.91638   0.26229088    5.7131277   0.15113032 0.0066666667    4.5272185  0.010458828    111.57203    624.44763 
   29500    342.99615   0.26233472    5.7316459   0.15113032 0.0066666667    3.8845028  0.011495903    111.68282    623.58921 
   29600    344.08778   0.26256874     5.750754   0.15113032 0.0066666667    3.8158802  0.011220413    111.55622    622.73296 
   29700    345.17898   0.26249916    5.7692387   0.15113032 0.0066666667    4.7436508  0.010349595    111.46034    621.87825 
   29800    346.15304   0.26240387    5.7848437   0.15113032 0.0066666667    4.0708951 0.0098847524    112.78828    620.99838 
   29900    347.13203   0.26133389    5.8011657   0.15113032 0.0066666667    3.9885702 0.0098956688    114.83825    620.08136 
   30000    348.16838   0.26116144     5.817411   0.15113032 0.0066666667    3.8147378  0.010508529    111.64304     619.2228 
   30100    349.19242   0.26241987    5.8342714   0.15113032 0.0066666667    3.8856285  0.010269852    111.37333    618.36903 
   30200    350.21444   0.26227397    5.8517186   0.15113032 0.0066666667    4.5113408 0.0097681967     111.7643    617.50771 
   30300    351.24059   0.26175728    5.8692278   0.15113032 0.0066666667    4.2318533  0.010798777    113.73215    616.61055 
   30400    352.23547   0.26286082    5.8852026   0.15113032 0.0066666667    3.9907149  0.010979377    112.30514    615.73909 
   30500    353.31463   0.26186715    5.9044658   0.15113032 0.0066666667    4.1501234  0.010881421    113.01773    614.85472 
   30600    354.35787   0.26159144    5.9214669   0.15113032 0.0066666667    4.1858587  0.010120026    113.58305    613.96035 
   30700    355.35492   0.26259417    5.9374745   0.15113032 0.0066666667    3.8124298  0.010036842    112.86021     613.0788 
   30800    356.34138   0.26231409    5.9541362   0.15113032 0.0066666667    4.3518953 0.0099927752    112.69788    612.20009 
   30900      357.332   0.26257673    5.9707337   0.15113032 0.0066666667    4.1075928 0.0092794651    111.16584    611.34867 
   31000    358.31035   0.26216086    5.9874306   0.15113032 0.0066666667    4.2483217  0.010634631    110.08039    610.51669 
   31100    359.35158   0.26273539    6.0053837   0.15113032 0.0066666667     4.091411  0.011188177    111.03856    609.66684 
   31200    360.45892   0.26209506    6.0240176   0.15113032 0.0066666667    3.9717063  0.010396929    112.18673    608.79635 
   31300    361.51073   0.26254898    6.0415162   0.15113032 0.0066666667    3.6461594  0.010478791    111.21156    607.94287 
   31400    362.58736   0.26271999    6.0583776   0.15113032 0.0066666667    3.7566047  0.010206389    113.25736    607.05363 
   31500    363.63469   0.26282227    6.0753912   0.15113032 0.0066666667    3.4944527  0.010478233    114.17882    606.14892 
   31600    364.61468    0.2629578    6.0913929   0.15113032 0.0066666667    3.8196302  0.010872656    115.72764    605.21903 
   31700    365.74242   0.26287027    6.1090911   0.15113032 0.0066666667    3.9595344   0.01123328    113.40916    604.32761 
   31800    366.83785   0.26268568    6.1264715   0.15113032 0.0066666667    4.1149063  0.010956759     111.5902    603.46708 
   31900    367.94407   0.26238199    6.1439982   0.15113032 0.0066666667    3.6470901  0.011479444    111.48757    602.60809 
   32000    369.04888   0.26261434    6.1616784   0.15113032 0.0066666667     4.257417  0.010904269    109.84762    601.77732 
   32100    370.13142   0.26240067    6.1798522   0.15113032 0.0066666667    4.3451766  0.010769658    112.28864    600.90419 
   32200    371.17772   0.26269581    6.1969661   0.15113032 0.0066666667    4.7137406  0.010511062    113.54578    600.01019 
   32300    372.20415   0.26278526    6.2141941   0.15113032 0.0066666667    4.9592333 0.0088973361    111.22643    599.15476 
   32400    373.15422   0.26259996    6.2291011   0.15113032 0.0066666667    4.3206719 0.0096359724    114.16816    598.25073 
   32500    374.18795   0.26266081    6.2458866   0.15113032 0.0066666667    4.0779258  0.011025973    111.30922     597.3936 
   32600    375.16556    0.2627815    6.2614841   0.15113032 0.0066666667    4.0834846 0.0099504627    112.05851     596.5238 
   32700    376.16021   0.26265231    6.2789781   0.15113032 0.0066666667    3.9851949 0.0096428124    113.14075    595.63629 
   32800    377.14281   0.26238059    6.2950631   0.15113032 0.0066666667    4.1825023  0.010460058    113.03762    594.75045 
   32900    378.17634   0.26237824    6.3111705   0.15113032 0.0066666667    4.1608478  0.010261542    111.52575    593.88908 
   33000    379.25868   0.26216419    6.3284025   0.15113032 0.0066666667    4.1033202  0.011376908    113.21875    593.00028 
   33100    380.35012   0.26203635    6.3461055   0.15113032 0.0066666667    4.0689906 0.0097557502    112.73765    592.11912 
   33200    381.40291    0.2620381    6.3628528   0.15113032 0.0066666667    3.6497831  0.011756692    114.43142    591.21152 
   33300    382.49035   0.26213382    6.3798713   0.15113032 0.0066666667    4.6524712  0.010064214    113.44002    590.31941 
   33400    383.50003   0.26193896    6.3960538   0.15113032 0.0066666667    3.8091524  0.011096436    113.45291    589.42717 
   33500    384.58198    0.2619476    6.4140239   0.15113032 0.0066666667    3.8263247  0.010824925    111.21307    588.57023 
   33600    385.58083   0.26279288     6.430303   0.15113032 0.0066666667    3.6596103  0.009913999    112.22236    587.69706 
   33700    386.61505   0.26248348    6.4484086   0.15113032 0.0066666667    4.2831301   0.01086905    113.02833    586.81128 
   33800    387.70707   0.26254242    6.4666455   0.15113032 0.0066666667    4.0379358  0.010664084    112.46619    585.93417 
   33900    388.80087   0.26150982    6.4850654   0.15113032 0.0066666667    3.8717017  0.010975301    112.96678     585.0493 
   34000    389.85409   0.26203091    6.5032558   0.15113032 0.0066666667    3.8854674  0.011015755    110.81179    584.19785 
   34100    390.96439   0.26190909     6.523963   0.15113032 0.0066666667    3.6540978  0.010434973     112.2487    583.32378 
   34200    392.03423   0.26160324    6.5432109   0.15113032 0.0066666667    4.4096758  0.010996968    112.87293    582.44013 
   34300    393.16793   0.26140694    6.5624638   0.15113032 0.0066666667    3.7673603  0.011408172    113.61105    581.54544 
   34400    394.24688   0.26143346    6.5818976   0.15113032 0.0066666667    3.8776996  0.010543132    113.51342    580.65228 
   34500     395.3029   0.26204491    6.6012044   0.15113032 0.0066666667     4.413248  0.010510178    112.26988    579.77771 
   34600    396.37724   0.26214878    6.6205558   0.15113032 0.0066666667    3.8569248  0.011575481    113.30867    578.88762 
   34700     397.4498   0.26258566    6.6389399   0.15113032 0.0066666667    4.5780583  0.010407313    111.44856    578.02529 
   34800    398.49235   0.26129904    6.6567558   0.15113032 0.0066666667    3.9403049  0.011046817    111.90074    577.15596 
   34900     399.5144   0.26195578    6.6738583   0.15113032 0.0066666667    4.0395001 0.0097398938    112.67466    576.27505 
   35000    400.42408   0.26191818    6.6896491   0.15113032 0.0066666667    3.9292624 0.0081878128    112.91091    575.39065 
   35100    401.28587   0.26160153    6.7036936   0.15113032 0.0066666667    3.9152281 0.0098279392    112.18634    574.51682 
   35200    402.29908   0.26109121     6.721109   0.15113032 0.0066666667      3.86907  0.011357513    114.00741    573.61668 
   35300    403.38893   0.26242581    6.7389584   0.15113032 0.0066666667    4.0170532  0.011231281    112.54912     572.7375 
   35400    404.41684   0.26199623      6.75627   0.15113032 0.0066666667     3.935062  0.010060754    114.91149    571.82493 
   35500    405.43483   0.26176025    6.7733397   0.15113032 0.0066666667    3.5464734  0.010784579    112.09355    570.95235 
   35600    406.52111   0.26272947    6.7924514   0.15113032 0.0066666667    3.8513201  0.010700677    113.18248    570.06413 
   35700    407.57355   0.26222808    6.8107918   0.15113032 0.0066666667    4.6315743  0.010445195     112.0565    569.19194 
   35800    408.62048   0.26180283    6.8281797   0.15113032 0.0066666667    4.2215478  0.011313102    113.75593    568.29572 
   35900    409.64652   0.26173834    6.8455044   0.15113032 0.0066666667    3.8673405  0.010214553    112.95999    567.41065 
   36000    410.68019   0.26194356    6.8628617   0.15113032 0.0066666667    3.6537819  0.010566302    111.78932    566.54207 
   36100    411.72299   0.26196425    6.8805599   0.15113032 0.0066666667    3.9680084  0.011203848    109.31899    565.70912 
   36200    412.77497   0.26271624    6.8988447   0.15113032 0.0066666667    3.8836891  0.010182606    111.40785    564.84549 
   36300    413.80693   0.26263763    6.9161233   0.15113032 0.0066666667    4.3260828   0.01024778    110.71448    563.99154 
   36400    414.88362   0.26160832    6.9350606   0.15113032 0.0066666667    3.9621423  0.011361118    112.28058    563.11531 
   36500    415.93581   0.26224331    6.9540413   0.15113032 0.0066666667    3.8137913  0.010954604    111.27765    562.25296 
   36600    416.98314   0.26201659    6.9728064   0.15113032 0.0066666667    3.8203326  0.010823191    111.01872    561.39405 
   36700    418.08607    0.2622879    6.9920146   0.15113032 0.0066666667    4.0987545  0.010566465     113.5173    560.50071 
   36800    419.14853   0.26219865     7.011477   0.15113032 0.0066666667    4.2951023  0.010501208    113.63974    559.60581 
   36900    420.18604   0.26274593    7.0308092   0.15113032 0.0066666667    4.5840293 0.0099264104    112.52796    558.72585 
   37000     421.1763   0.26171749     7.048879   0.15113032 0.0066666667    3.8552352  0.010674983    109.78756    557.88362 
   37100     422.1738   0.26208355    7.0667154   0.15113032 0.0066666667    3.5598107  0.010705095    113.23235    556.99404 
   37200     423.2534   0.26140035    7.0865606   0.15113032 0.0066666667    4.3293421  0.010018365    111.30045    556.13037 
   37300    424.25119   0.26187779     7.104864   0.15113032 0.0066666667    4.0885466  0.010246022    111.25673    555.26711 
   37400    425.27325   0.26304835    7.1231453   0.15113032 0.0066666667    4.1791721 0.0097411066    111.40188     554.4017 
   37500    426.30199   0.26281085    7.1427539   0.15113032 0.0066666667    4.9106607  0.010035196    113.76124    553.50509 
   37600    427.32291   0.26139626    7.1615977   0.15113032 0.0066666667    3.7365331  0.010465555    112.15628    552.62945 
   37700    428.39392   0.26226425    7.1807006   0.15113032 0.0066666667    4.0520829  0.010484804    111.99812     551.7558 
   37800      429.435   0.26238806    7.1992668   0.15113032 0.0066666667    3.6190361  0.010697902    110.56187    550.90114 
   37900    430.48668   0.26201176     7.217498   0.15113032 0.0066666667    4.5261901  0.010485861    112.18196    550.02481 
   38000    431.58261   0.26234678    7.2385882   0.15113032 0.0066666667    4.2368915  0.010584916    110.58508     549.1694 
   38100    432.64614   0.26301063    7.2579762   0.15113032 0.0066666667    4.2726653  0.011181196     110.5263    548.31452 
   38200    433.73528   0.26313877    7.2784029   0.15113032 0.0066666667    4.2177537    0.0105407    110.47052    547.46012 
   38300    434.82057   0.26225235    7.2987532   0.15113032 0.0066666667    3.9696073  0.011336764    111.71325    546.58923 
   38400    435.89344   0.26275109    7.3188738   0.15113032 0.0066666667    3.9258705  0.010633932    112.31311    545.71054 
   38500    436.96586   0.26328175    7.3382209   0.15113032 0.0066666667    4.4819133  0.010444522     112.3222    544.83168 
   38600    438.04147   0.26232044     7.358696   0.15113032 0.0066666667    3.9113418  0.010185072     113.4914    543.93817 
   38700    439.04013   0.26280519    7.3771414   0.15113032 0.0066666667    3.7345232  0.010333915    111.41614    543.07072 
   38800     440.0692   0.26302621    7.3972317   0.15113032 0.0066666667    4.3176015 0.0097777559    110.25894    542.21798 
   38900    441.06018   0.26305307    7.4162771   0.15113032 0.0066666667    4.5118003 0.0099634744      111.501    541.34908 
   39000    442.07425   0.26291115    7.4359571   0.15113032 0.0066666667    4.0573496  0.010222386    110.93753    540.48717 
   39100     443.0938   0.26331626    7.4562621   0.15113032 0.0066666667    3.8926887  0.011155715     109.4226    539.64449 
   39200    444.12192    0.2632278    7.4752913   0.15113032 0.0066666667    3.9842227 0.0093413301    111.74009    538.77205 
   39300    445.11042   0.26256816    7.4942702   0.15113032 0.0066666667    3.8554029    0.0102776    111.74557    537.89943 
   39400     446.1724   0.26258067    7.5160876   0.15113032 0.0066666667    3.9640757  0.010801405    111.61574     537.0283 
   39500    447.28199   0.26270702    7.5381538   0.15113032 0.0066666667    4.1155226  0.010822061    114.98285    536.11685 
   39600     448.3276   0.26198365    7.5592688   0.15113032 0.0066666667    4.2352676  0.010085869    111.99301    535.24104 
   39700    449.36814   0.26271295    7.5789452   0.15113032 0.0066666667    3.5914488 0.0093243689    111.82204    534.36721 
   39800    450.37367   0.26223251    7.5977785   0.15113032 0.0066666667    4.0939998 0.0099320228    112.41296    533.48616 
   39900    451.38077   0.26275221    7.6167584   0.15113032 0.0066666667    4.2289552 0.0097038076    113.24106    532.59527 
   40000    452.38277   0.26227423    7.6360123   0.15113032 0.0066666667    3.8066079  0.010720726    111.17026     531.7291 
   40100    453.41466   0.26225318     7.655472   0.15113032 0.0066666667      4.01504  0.010100514    110.38272    530.87235 
   40200    454.47479   0.26321379     7.674935   0.15113032 0.0066666667    4.4112268  0.010340356    110.11978    530.01857 
   40300    455.48105   0.26167084    7.6945123   0.15113032 0.0066666667    3.8294695  0.010680335    112.31335    529.13825 
   40400    456.50017   0.26201543    7.7139731   0.15113032 0.0066666667    4.4141678  0.010111779    112.88606    528.25121 
   40500    457.48374     0.262789    7.7322643   0.15113032 0.0066666667    4.0081415  0.010484924    109.45064    527.40503 
   40600    458.51735   0.26235779    7.7520595   0.15113032 0.0066666667    3.9268844  0.010452156     112.3256     526.5243 
   40700    459.54607    0.2620712    7.7711443   0.15113032 0.0066666667    4.5808666  0.010736686    113.07178    525.63497 
   40800    460.59887   0.26192185    7.7912263   0.15113032 0.0066666667    4.0101393  0.010442998     111.9832    524.75813 
   40900     461.6501   0.26198324    7.8103007   0.15113032 0.0066666667    3.9899316  0.010879531    113.21502    523.86718 
   41000    462.72428    0.2618075    7.8300453   0.15113032 0.0066666667    4.3027262  0.011272861    111.23743    522.99886 
   41100    463.80039    0.2620602    7.8491421   0.15113032 0.0066666667    4.2899078  0.010637606    110.77594    522.13576 
   41200    464.88733   0.26224298    7.8675737   0.15113032 0.0066666667    4.1426192  0.010104387    112.48393     521.2529 
   41300    465.83672   0.26142205    7.8834301   0.15113032 0.0066666667    4.3613339 0.0094875453    111.07458    520.38605 
   41400    466.82225    0.2620306    7.9012819   0.15113032 0.0066666667    4.9544839 0.0096252107    110.46855    519.52602 
   41500    467.78928   0.26182507    7.9186321   0.15113032 0.0066666667    4.0585797 0.0089103668    114.05838    518.62562 
   41600    468.69706   0.26350073    7.9339772   0.15113032 0.0066666667    4.2956692  0.008978197    113.13754    517.73534 
   41700    469.72305   0.26247165    7.9522602   0.15113032 0.0066666667    3.8035595  0.011433052    112.83382    516.84843 
   41800    470.85205   0.26213088    7.9725749   0.15113032 0.0066666667    3.7386847  0.011288078    111.23879    515.97921 
   41900    471.93468   0.26248347    7.9918755   0.15113032 0.0066666667    4.1331716  0.010641304    112.27439    515.09835 
   42000    472.98562   0.26181698    8.0103342   0.15113032 0.0066666667    4.3336206   0.01066133     111.7797    514.22289 
   42100     474.0689   0.26164075    8.0307417   0.15113032 0.0066666667    3.6069838  0.010572077     114.1038    513.32227 
   42200    475.13815   0.26314847    8.0496805   0.15113032 0.0066666667    3.4939272  0.011102981    111.83779     512.4461 
   42300    476.22713   0.26298952    8.0694952   0.15113032 0.0066666667    3.9841182  0.010539984    111.12211    511.57769 
   42400    477.29034   0.26249385    8.0884582   0.15113032 0.0066666667     4.637932  0.010393171    112.25612    510.69678 
   42500    478.36434   0.26333141     8.107275   0.15113032 0.0066666667    3.9702834  0.010453833    113.03689     509.8075 
   42600    479.43579   0.26343854    8.1263812   0.15113032 0.0066666667    4.0595899  0.011115263    111.45152     508.9352 
   42700    480.51767   0.26254026    8.1459447   0.15113032 0.0066666667    4.1439897  0.010319032    111.68867    508.06023 
   42800    481.59253   0.26277993    8.1648564   0.15113032 0.0066666667    4.4265204   0.01070515    110.88453    507.19384 
   42900    482.64573   0.26326439     8.183668   0.15113032 0.0066666667    4.0420296  0.011035751     110.9788    506.32627 
   43000    483.70709   0.26261774    8.2016566   0.15113032 0.0066666667    4.1164866  0.010841796    110.52141    505.46348 
   43100    484.77647   0.26156276    8.2202858   0.15113032 0.0066666667    4.6318251    0.0105007    111.53124    504.58968 
   43200    485.80649   0.26156898    8.2379972   0.15113032 0.0066666667    3.9980451  0.010309738     113.5539    503.69478 
   43300    486.87343   0.26148073    8.2562626   0.15113032 0.0066666667     3.619329  0.011095035    111.45291    502.82168 
   43400    487.96829   0.26185268    8.2750412   0.15113032 0.0066666667    3.8660749  0.011224398    110.33031    501.96038 
   43500    489.07306   0.26212527    8.2944588   0.15113032 0.0066666667    3.8221329  0.010424781    112.30391    501.07818 
   43600    490.13298    0.2623946    8.3130214   0.15113032 0.0066666667    4.0757804  0.011082753    113.76747    500.18112 
   43700    491.19394   0.26326081    8.3313879   0.15113032 0.0066666667    4.0115684   0.01001714    111.92341    499.30281 
   43800    492.17811   0.26291115    8.3497167   0.15113032 0.0066666667    4.2303961 0.0088498627     111.9485    498.42417 
   43900    493.14702   0.26380983    8.3668285   0.15113032 0.0066666667     3.861574  0.011271162    111.63154     497.5487 
   44000    494.22933    0.2631438    8.3860893   0.15113032 0.0066666667    3.8488507  0.010311367    108.72497    496.70362 
   44100    495.26743   0.26394025    8.4051278   0.15113032 0.0066666667    3.7657289  0.010548518    111.38735    495.83034 
   44200    496.36905   0.26301027    8.4250834   0.15113032 0.0066666667    4.2299833  0.010300079    111.60252    494.95476 
   44300    497.38855   0.26340318    8.4431798   0.15113032 0.0066666667    3.9394252  0.010016223     111.0752    494.08443 
   44400     498.3997   0.26260899    8.4621215   0.15113032 0.0066666667    4.0746274  0.011022642    113.19491    493.19286 
   44500    499.48148   0.26286444    8.4821687   0.15113032 0.0066666667    3.7891183  0.011110584    111.10295    492.32207 
   44600    500.60375   0.26215855    8.5025557   0.15113032 0.0066666667    4.0026986  0.010459032    111.82306    491.44395 
   44700    501.69082   0.26210017    8.5221941   0.15113032 0.0066666667    4.3194646  0.010975598    111.26652     490.5713 
   44800    502.70174   0.26228441    8.5402008   0.15113032 0.0066666667     3.682383  0.010425096     113.5503    489.67625 
   44900    503.74059   0.26182958    8.5584452   0.15113032 0.0066666667    3.6709697 0.0099225941    110.69233    488.80917 
   45000     504.8445   0.26282435    8.5781624   0.15113032 0.0066666667    3.7586694 0.0098398625    111.44853    487.93444 
   45100    505.86019   0.26274762    8.5955793   0.15113032 0.0066666667    3.8881834  0.011456025    114.21734    487.03313 
   45200    506.93474   0.26282521    8.6138535   0.15113032 0.0066666667    3.8379979  0.010082602    113.25861    486.14091 
   45300    508.04195   0.26296881    8.6337257   0.15113032 0.0066666667    4.3070405  0.011438012    113.96478    485.24214 
   45400    509.15503   0.26287018    8.6542435   0.15113032 0.0066666667    4.2550862  0.010712666    112.44825    484.35769 
   45500    510.22144   0.26209852    8.6726705   0.15113032 0.0066666667    3.9299178 0.0097318255    112.82083     483.4697 
   45600    511.22172   0.26300508    8.6898235   0.15113032 0.0066666667    4.0083352 0.0098094243    111.32042    482.59597 
   45700    512.24124   0.26203942    8.7072238   0.15113032 0.0066666667     4.818163  0.010178681    111.60662     481.7194 
   45800    513.31158   0.26159926    8.7258161   0.15113032 0.0066666667    3.8629538   0.01163677    111.73673     480.8415 
   45900    514.39665    0.2631949    8.7451635   0.15113032 0.0066666667    4.1807394 0.0099483713    113.11039    479.95072 
   46000    515.46649   0.26279036    8.7640975   0.15113032 0.0066666667    4.0673109  0.010237299    111.62572    479.07378 
   46100    516.51064   0.26218149     8.782239   0.15113032 0.0066666667    4.2724477 0.0097807643     112.0786    478.19251 
   46200    517.54094   0.26347807    8.8005407   0.15113032 0.0066666667    4.4930735  0.010888144    111.19449    477.31947 
   46300     518.6038   0.26291293      8.81923   0.15113032 0.0066666667    4.4080089  0.010224826     113.1648    476.42815 
   46400    519.61883   0.26243864    8.8362973   0.15113032 0.0066666667    4.7427909 0.0099468845    113.14804    475.53701 
   46500    520.59718   0.26252045    8.8534233   0.15113032 0.0066666667    4.0178551 0.0096665091    111.59308    474.66007 
   46600    521.64427   0.26202668    8.8713439   0.15113032 0.0066666667      4.42622  0.010610112    113.01667    473.77012 
   46700    522.72927   0.26244018     8.890268   0.15113032 0.0066666667    4.6500447  0.010589675    110.33705    472.90471 
   46800    523.76719   0.26236588    8.9087284   0.15113032 0.0066666667     4.794868 0.0098081427    113.05514    472.01436 
   46900    524.80832    0.2621615    8.9286351   0.15113032 0.0066666667    4.3971396  0.010063971    111.88674    471.13449 
   47000    525.81394   0.26327031    8.9475378   0.15113032 0.0066666667    4.3863323  0.010892249    112.75535     470.2468 
   47100    526.86894   0.26240403    8.9670898   0.15113032 0.0066666667    3.6680262  0.010206753    111.15804    469.37343 
   47200    527.89121   0.26256232    8.9854152   0.15113032 0.0066666667    4.3430402  0.010234298    110.24045    468.50832 
   47300    528.92879   0.26292123    9.0046846   0.15113032 0.0066666667    4.1327183  0.010990107    111.47042    467.63188 
   47400    530.02843   0.26292118    9.0243132   0.15113032 0.0066666667    4.0741331  0.010947692    112.09205    466.74984 
   47500     531.1022   0.26222942    9.0438563   0.15113032 0.0066666667    3.8342476  0.010327416    112.57673     465.8635 
   47600    532.21091   0.26206095    9.0644899   0.15113032 0.0066666667    3.8980995  0.010649439    115.49265    464.95247 
   47700     533.2908   0.26168495    9.0846678   0.15113032 0.0066666667    4.1644713  0.011214972    115.18361    464.04418 
   47800     534.3549    0.2619966    9.1029896   0.15113032 0.0066666667    4.0778226  0.010913603    112.04558    463.16261 
   47900    535.46241   0.26283008    9.1219599   0.15113032 0.0066666667    3.8154188  0.011729854    112.44231    462.27756 
   48000    536.53335   0.26159042    9.1410071   0.15113032 0.0066666667    4.1383061  0.010572167    111.32843    461.40214 
   48100     537.6335   0.26177476    9.1613232   0.15113032 0.0066666667    3.9636274  0.011362893    113.45536    460.50845 
   48200    538.71602   0.26089075    9.1810787   0.15113032 0.0066666667    4.4737182   0.01053869    112.06905    459.62654 
   48300    539.71992    0.2618064    9.1997459   0.15113032 0.0066666667    3.9424121 0.0086977305    111.51917    458.74928 
   48400      540.645    0.2618124    9.2163741   0.15113032 0.0066666667    4.0561488 0.0085418655    111.06814    457.87583 
   48500     541.5949   0.26253334    9.2336642   0.15113032 0.0066666667    4.1358824  0.010390967    113.99898    456.97769 
   48600    542.65751   0.26205727    9.2528011   0.15113032 0.0066666667    3.6341669 0.0099128677    114.93432    456.07209 
   48700    543.70843   0.26234393    9.2726943   0.15113032 0.0066666667    4.4021852 0.0096116904    114.05084    455.17373 
   48800    544.76517   0.26251756    9.2918341   0.15113032 0.0066666667    4.0801578  0.010744478    113.85088    454.27708 
   48900    545.83868   0.26341113    9.3110779   0.15113032 0.0066666667    3.9662801  0.011056341    112.77566    453.38925 
   49000     546.9062   0.26363516     9.329937   0.15113032 0.0066666667    4.0915737  0.010719742    112.18925    452.50625 
   49100    548.00539   0.26256776    9.3497882   0.15113032 0.0066666667    4.1627206  0.011377649    112.14408    451.62359 
   49200    549.09519   0.26231612    9.3693411   0.15113032 0.0066666667    4.0729945  0.010728267    107.93066    450.77683 
   49300    550.11458   0.26197847    9.3879177   0.15113032 0.0066666667    3.9378237  0.010179179    110.83783    449.90476 
   49400    551.16872   0.26257072    9.4078052   0.15113032 0.0066666667    4.0825466  0.010171032    114.05903    449.00647 
   49500    552.24402   0.26330943    9.4265503   0.15113032 0.0066666667    3.8909032  0.011843527    114.63709    448.10376 
   49600    553.32167    0.2623033    9.4466496   0.15113032 0.0066666667    4.6182885  0.010379274    114.12724    447.20512 
   49700    554.36461   0.26202804    9.4669594   0.15113032 0.0066666667    4.5982843   0.01043521     111.3922    446.32836 
   49800     555.3822   0.26212233    9.4858965   0.15113032 0.0066666667    3.6115144  0.010466821    110.16502    445.46158 
   49900    556.42117   0.26284038    9.5051618   0.15113032 0.0066666667    4.1873112 0.0093382868    110.02299    444.59582 
   50000    557.47433   0.26272963    9.5239505   0.15113032 0.0066666667     4.278832  0.011095017     112.1085    443.71298 
   50100    558.56337   0.26258414     9.543413   0.15113032 0.0066666667    4.3846011   0.01059365    109.88446    442.84809 
   50200    559.61567   0.26205499    9.5622288   0.15113032 0.0066666667     4.101578  0.011159347    112.95081     441.9585 
   50300     560.6963   0.26304576    9.5824897   0.15113032 0.0066666667    4.1550094  0.010227034    109.92987    441.09297 
   50400    561.75029   0.26211528    9.6014452   0.15113032 0.0066666667    4.4318361  0.010222362    112.96279    440.20324 
   50500     562.8091   0.26334321    9.6199941   0.15113032 0.0066666667    4.1707184  0.010680085    112.81449    439.31466 
   50600    563.83401   0.26293922    9.6381611   0.15113032 0.0066666667    3.9244049  0.010805495    112.02777    438.43216 
   50700    564.89498   0.26311571    9.6566045   0.15113032 0.0066666667    3.9505436  0.011125677    111.07641    437.55706 
   50800    565.98327   0.26206802    9.6756872   0.15113032 0.0066666667    3.7059878  0.010406537    111.50026    436.67855 
   50900    567.00542   0.26219523    9.6942251   0.15113032 0.0066666667    3.7498746  0.010876293    112.01646    435.79597 
   51000    568.10274   0.26330365    9.7143749   0.15113032 0.0066666667      4.19303  0.010963354    111.12161    434.92027 
   51100    569.15866   0.26140856    9.7337369   0.15113032 0.0066666667    4.3140268  0.010599997    111.03597    434.04513 
   51200    570.18032   0.26158663    9.7528427   0.15113032 0.0066666667    4.0146779  0.010144851    112.17314    433.16119 
   51300    571.20666   0.26253237    9.7716896   0.15113032 0.0066666667    4.1170785  0.010888642     112.3617    432.27581 
   51400    572.31238   0.26371083    9.7927353   0.15113032 0.0066666667    3.5225716  0.010458827    111.88961    431.39395 
   51500    573.44077   0.26287184     9.812073   0.15113032 0.0066666667    3.6090885  0.010324338     114.5239    430.49269 
   51600    574.49948    0.2625425    9.8312069   0.15113032 0.0066666667    4.2421675  0.010573574    111.13804    429.61649 
   51700    575.54869   0.26146797    9.8494935   0.15113032 0.0066666667     4.072225  0.010501012    112.86911    428.72731 
   51800    576.56988   0.26347628    9.8680268   0.15113032 0.0066666667    4.1979271  0.010652131    110.31293    427.85724 
   51900    577.62477   0.26306247    9.8869746   0.15113032 0.0066666667    3.9232735  0.010960626    112.33582     426.9719 
   52000    578.70874    0.2625722    9.9060951   0.15113032 0.0066666667    3.6697845  0.011220506    113.29585    426.07958 
   52100    579.80217   0.26288211    9.9248337   0.15113032 0.0066666667    3.9455813  0.011801748    111.73185    425.19866 
   52200    580.87346   0.26355088    9.9441953   0.15113032 0.0066666667    4.1562273  0.011058996    115.59945    424.29026 
   52300    581.97612   0.26345154    9.9632069   0.15113032 0.0066666667    3.9712499  0.010626764    112.89523    423.40093 
   52400    582.98379   0.26402487    9.9803564   0.15113032 0.0066666667    4.5434292  0.010219568    114.99353    422.49693 
   52500    583.98657   0.26369031    9.9975941   0.15113032 0.0066666667    4.0656785  0.011330489    115.27405    421.59114 
   52600    585.11509   0.26317805    10.016719   0.15113032 0.0066666667    3.9368698  0.011091343    114.72165    420.68927 
   52700     586.2198   0.26202663    10.035833   0.15113032 0.0066666667    3.7390011   0.01152681    116.04549    419.77858 
   52800    587.31409   0.26274144    10.054656   0.15113032 0.0066666667    3.8230358  0.010496789    112.77812     418.8904 
   52900    588.43774   0.26402945    10.074278   0.15113032 0.0066666667    4.1711803  0.011095261    111.07223    418.01435 
   53000    589.48733   0.26384931    10.092371   0.15113032 0.0066666667    3.8067304  0.011390159    109.61978    417.14878 
   53100    590.57253   0.26394203    10.110528   0.15113032 0.0066666667    4.3119901  0.010911263    112.10412    416.26519 
   53200    591.68754   0.26353216    10.129362   0.15113032 0.0066666667    3.8060177  0.011486909    113.58883     415.3713 
   53300     592.6659   0.26336639    10.144552   0.15113032 0.0066666667     4.549954 0.0092373058    111.61327    414.49112 
   53400    593.72869   0.26323261    10.161731   0.15113032 0.0066666667     3.971849  0.011390725    111.51665    413.61156 
   53500    594.81313   0.26248604    10.180264   0.15113032 0.0066666667    3.5852516  0.010956438    111.89424     412.7293 
   53600    595.83866   0.26335544    10.197995   0.15113032 0.0066666667    3.6574527 0.0094648425    111.52875    411.84954 
   53700    596.84667   0.26276046    10.215918   0.15113032 0.0066666667    3.8455844  0.011298365    114.35888    410.95058 
   53800    597.94854   0.26427625    10.234622   0.15113032 0.0066666667    3.9415603  0.011363708      112.704    410.06274 
   53900    599.05731   0.26307556    10.255019   0.15113032 0.0066666667    4.3824464    0.0105057    112.30505    409.17759 
   54000    600.12679   0.26394459    10.273759   0.15113032 0.0066666667    3.9086154   0.01164423    108.82919    408.31666 
   54100    601.15837   0.26332609    10.291039   0.15113032 0.0066666667    3.4870426 0.0096703737    111.30119    407.43819 
   54200    602.14705   0.26360842    10.307698   0.15113032 0.0066666667    4.2393465  0.010007582    113.65239    406.54394 
   54300    603.15235   0.26327391    10.325189   0.15113032 0.0066666667      4.21228  0.010100283    111.71399     405.6626 
   54400    604.23909   0.26289761    10.343575   0.15113032 0.0066666667     4.186422  0.010790379    111.99878     404.7793 
   54500    605.35057   0.26213558    10.363277   0.15113032 0.0066666667    4.1208658  0.010830948    113.27541    403.88756 
   54600     606.3764   0.26261017    10.381209   0.15113032 0.0066666667    4.2163448  0.010482397     111.6959    403.00623 
   54700     607.3736   0.26263064    10.399072   0.15113032 0.0066666667    3.8195781 0.0097179221     110.8731    402.13035 
   54800    608.35473   0.26293195    10.415161   0.15113032 0.0066666667    4.1098046  0.010978569    110.89843    401.25421 
   54900    609.46942   0.26241995    10.434423   0.15113032 0.0066666667    4.0406766  0.010046675    111.58423    400.37343 
   55000     610.5534   0.26170728    10.452759   0.15113032 0.0066666667    3.9524661  0.010904134    109.23913    399.50833 
   55100    611.63284   0.26177935     10.47045   0.15113032 0.0066666667    4.2636466  0.011259619    111.95059    398.62498 
   55200    612.77652   0.26245966     10.48866   0.15113032 0.0066666667    3.9443959  0.010739331    111.10274    397.74712 
   55300     613.8283    0.2640329    10.505293   0.15113032 0.0066666667    3.7987255    0.0101191    113.08761    396.85642 
   55400     614.8097   0.26251833    10.520708   0.15113032 0.0066666667    3.8883601 0.0096333771    113.02233    395.96615 
   55500    615.78181   0.26190367    10.537054   0.15113032 0.0066666667     4.025612 0.0093021299    110.48967    395.09216 
   55600    616.81086   0.26319031    10.553405   0.15113032 0.0066666667    4.1690021  0.010460422    111.25451    394.21309 
   55700    617.87574   0.26297929    10.570796   0.15113032 0.0066666667    3.9344742  0.010138636    112.81397    393.32407 
   55800    618.91753   0.26310195    10.588152   0.15113032 0.0066666667    3.4531689  0.011591092    113.44388    392.43115 
   55900    620.01876   0.26292047     10.60649   0.15113032 0.0066666667    3.8545943  0.010477179    111.41652    391.55094 
   56000    621.07619   0.26277461    10.622083   0.15113032 0.0066666667    4.0640215  0.010940991    110.71278    390.67514 
   56100    622.16327   0.26303503    10.639476   0.15113032 0.0066666667    3.9924911  0.010796249    110.62448    389.79981 
   56200    623.23883   0.26204009    10.657425   0.15113032 0.0066666667    3.8965316  0.011196107    111.06976    388.92155 
   56300    624.28896    0.2630755    10.675105   0.15113032 0.0066666667    4.1771989  0.010883047    113.13907    388.03044 
   56400    625.34093   0.26307406     10.69187   0.15113032 0.0066666667    3.6373639  0.010138893    112.47331    387.14339 
   56500    626.40312   0.26326057    10.710577   0.15113032 0.0066666667    4.2562794  0.010404075    112.49301    386.25622 
   56600    627.45425   0.26304835    10.728866   0.15113032 0.0066666667    4.0542753 0.0097440031    112.50987    385.36894 
   56700    628.52316   0.26212208    10.747198   0.15113032 0.0066666667    4.2889662  0.010894017    111.37729    384.48855 
   56800     629.6049   0.26235127    10.763494   0.15113032 0.0066666667    4.9150713  0.010129124    110.48455    383.61362 
   56900    630.64831   0.26174807    10.780497   0.15113032 0.0066666667    4.0875758  0.010622109    111.24498     382.7339 
   57000    631.69319    0.2627005    10.797249   0.15113032 0.0066666667    4.2226739  0.011313446    110.23862     381.8603 
   57100    632.76002   0.26262928    10.813242   0.15113032 0.0066666667    4.2522366  0.010835827    110.92585    380.98237 
   57200    633.79693   0.26326427    10.830701   0.15113032 0.0066666667     4.168799  0.010140144    113.72321    380.08775 
   57300    634.86226    0.2622372    10.848755   0.15113032 0.0066666667    3.9215587  0.010339126    114.15827     379.1907 
   57400    635.89333   0.26244656    10.866522   0.15113032 0.0066666667    3.9751852  0.010091339    114.10001    378.29405 
   57500    636.93732   0.26244584    10.883249   0.15113032 0.0066666667    4.3454825 0.0099924135    113.76836    377.39935 
   57600    637.91253   0.26331813    10.899455   0.15113032 0.0066666667    4.6443937   0.00950506    112.10283    376.51433 
   57700    638.93999   0.26319932    10.917311   0.15113032 0.0066666667    3.9495317  0.010944682    113.45318     375.6215 
   57800    639.95107    0.2626898    10.934848   0.15113032 0.0066666667    4.0798636  0.010486309    111.50283    374.73996 
   57900    641.00581   0.26265386     10.95224   0.15113032 0.0066666667      4.17481  0.010033541    110.99222    373.86137 
   58000    642.07159   0.26247964    10.971353   0.15113032 0.0066666667    3.7138293  0.011315324    111.56271    372.97937 
   58100    643.15419   0.26252128    10.989975   0.15113032 0.0066666667    3.7562534  0.010036704    112.35538    372.09275 
   58200    644.18136   0.26323011    11.007187   0.15113032 0.0066666667    4.1596567  0.010320293    113.28146     371.2009 
   58300    645.24188    0.2634931    11.026009   0.15113032 0.0066666667    3.6415294  0.010424504    111.54651     370.3189 
   58400    646.31588   0.26250164    11.044615   0.15113032 0.0066666667    4.3211904  0.010199081    112.08198     369.4338 
   58500    647.41336   0.26263889    11.062993   0.15113032 0.0066666667    4.1043954  0.011032417    113.52089    368.54066 
   58600    648.48121   0.26370249    11.081316   0.15113032 0.0066666667    4.1012555  0.010599193    109.90994      367.668 
   58700    649.56744   0.26303463    11.100751   0.15113032 0.0066666667    3.7813897  0.010617994    113.13791    366.77695 
   58800    650.64412   0.26271848    11.119247   0.15113032 0.0066666667    4.0347884  0.010434237    111.32547    365.89601 
   58900    651.71359   0.26229131    11.136582   0.15113032 0.0066666667    4.1092177  0.010573582    112.06641    365.01086 
   59000    652.77792   0.26272265    11.155237   0.15113032 0.0066666667    3.7627486  0.010875755    112.51694    364.12321 
   59100    653.79229   0.26346986    11.172917   0.15113032 0.0066666667    3.9477307 0.0094957572     110.6464    363.24595 
   59200    654.75531   0.26183652    11.190222   0.15113032 0.0066666667    4.5166516 0.0094408752    110.40062    362.36999 
   59300    655.76813    0.2638171    11.207151   0.15113032 0.0066666667    4.3637325   0.01030253    112.88949    361.48023 
   59400    656.81796   0.26239405    11.226227   0.15113032 0.0066666667    4.0176465  0.011444589    112.42766    360.59296 
   59500    657.90349   0.26368944    11.245813   0.15113032 0.0066666667    3.9649836  0.011055998    111.60911    359.71012 
   59600    658.97974   0.26358913    11.263563   0.15113032 0.0066666667    3.6488003  0.011208878     113.4125    358.81759 
   59700    660.04875   0.26327859    11.280617   0.15113032 0.0066666667    3.8812489  0.010607042    112.40112    357.93044 
   59800    661.13283   0.26220327    11.298515   0.15113032 0.0066666667     4.123794  0.011300769    112.89982    357.04065 
   59900    662.20812    0.2625218    11.316443   0.15113032 0.0066666667    4.2119973  0.010497511    110.88527    356.16164 
   60000    663.24921   0.26230425    11.333734   0.15113032 0.0066666667     3.958491  0.011116547    110.29419    355.28578 
   60100    664.36258   0.26235072    11.352091   0.15113032 0.0066666667    4.3614307  0.011034545    110.80307    354.40705 
   60200    665.45662   0.26279213    11.371561   0.15113032 0.0066666667    4.4097483 0.0099738914    111.83868    353.52272 
   60300    666.52446    0.2625939    11.389576   0.15113032 0.0066666667    4.5008998  0.010330298    113.57791    352.62934 
   60400    667.52992   0.26269154     11.40674   0.15113032 0.0066666667    4.5470013  0.010748488    112.60436    351.74099 
   60500    668.56723   0.26211877      11.4252   0.15113032 0.0066666667    3.9231825  0.011445345    112.90721    350.85109 
   60600    669.69658   0.26216165    11.444972   0.15113032 0.0066666667    4.0679995  0.010975025    114.64658    349.95247 
   60700    670.76147    0.2619553    11.463183   0.15113032 0.0066666667    4.2144925  0.011010564     112.8347      349.063 
   60800    671.82072   0.26277105    11.480183   0.15113032 0.0066666667    4.1830014  0.010653788    111.86672    348.17849 
   60900    672.88124   0.26324426    11.499157   0.15113032 0.0066666667    3.8582133 0.0099377848    111.45676    347.29605 
   61000    673.95269   0.26294588    11.518221   0.15113032 0.0066666667    4.4700696  0.010449607    112.86923    346.40639 
   61100    674.97312   0.26296247    11.537306   0.15113032 0.0066666667    3.7588671  0.010160434    111.12532     345.5256 
   61200    676.01584   0.26299362    11.554884   0.15113032 0.0066666667    4.3606676  0.010515046    114.50661    344.62789 
   61300    677.13185    0.2630675    11.572893   0.15113032 0.0066666667    3.7684797 0.0099755214    112.32975    343.74095 
   61400    678.19357   0.26206222    11.590195   0.15113032 0.0066666667    3.9322112  0.010521213     112.8555    342.85139 
   61500    679.22118   0.26225088    11.606532   0.15113032 0.0066666667    4.1338912 0.0089714906    113.27183    341.95981 
   61600    680.25275   0.26255806    11.624286   0.15113032 0.0066666667    4.1899646  0.010652805    114.14311    341.06405 
   61700    681.29398   0.26335214    11.641395   0.15113032 0.0066666667    4.2793117  0.010170234     113.7266    340.17034 
   61800    682.31297    0.2625583    11.657784   0.15113032 0.0066666667    3.7235195  0.010266988    116.61288    339.26323 
   61900    683.33761   0.26287074    11.674827   0.15113032 0.0066666667    4.1306942 0.0095114791    112.32361    338.37644 
   62000    684.37341   0.26254316    11.692724   0.15113032 0.0066666667    4.2130916 0.0098095789     113.1685    337.48556 
   62100     685.4405   0.26157594    11.710575   0.15113032 0.0066666667    3.9210655  0.010816687    112.18547    336.59943 
   62200    686.47626    0.2616774    11.727727   0.15113032 0.0066666667    3.9218422  0.010155443    113.90663     335.7051 
   62300    687.52034   0.26241379    11.745067   0.15113032 0.0066666667    3.6414546 0.0096215659    114.64511     334.8074 
   62400      688.537   0.26086619    11.762838   0.15113032 0.0066666667    4.8323255 0.0099108281    115.12648    333.90758 
   62500    689.53527   0.26282423    11.778554   0.15113032 0.0066666667    3.9597462 0.0096792155    114.05279    333.01277 
   62600    690.59665   0.26288656    11.795444   0.15113032 0.0066666667    4.4921365 0.0097621068    113.04634    332.12268 
   62700    691.62304   0.26101375     11.81243   0.15113032 0.0066666667    4.0305244  0.010247604    113.36956    331.23111 
   62800     692.6567   0.26209769    11.829224   0.15113032 0.0066666667    4.1160009 0.0093945688    114.68969    330.33355 
   62900    693.62481   0.26238007    11.846312   0.15113032 0.0066666667    3.9995992  0.010719388    114.62854    329.43635 
   63000    694.66965   0.26279311    11.863865   0.15113032 0.0066666667     3.667821  0.011093306    111.81319    328.55213 
   63100    695.76432   0.26367531    11.883142   0.15113032 0.0066666667    3.6153232  0.010729418    110.57371    327.67374 
   63200    696.78075   0.26248717    11.899514   0.15113032 0.0066666667    3.9024008 0.0098937489    111.84169     326.7893 
   63300    697.76937   0.26242569     11.91567   0.15113032 0.0066666667    3.8782243   0.01099278    113.32291    325.89805 
   63400    698.87469   0.26260502    11.933685   0.15113032 0.0066666667     4.188839  0.010239625     114.7343    325.00056 
   63500    699.91242   0.26146215     11.95102   0.15113032 0.0066666667    4.1631821  0.010812227    112.55583    324.11285 
   63600    700.99658   0.26230777    11.969018   0.15113032 0.0066666667    3.9560911    0.0112566    113.52645    323.22079 
   63700    702.05404   0.26174193    11.986066   0.15113032 0.0066666667    3.8887823  0.010891438    113.73782    322.32783 
   63800    703.10984   0.26217905    12.002867   0.15113032 0.0066666667    4.1358553  0.010092633    111.19081    321.44634 
   63900    704.10958   0.26220421    12.018765   0.15113032 0.0066666667    4.2006213  0.010065582    115.13204     320.5474 
   64000    705.14413   0.26155985    12.035039   0.15113032 0.0066666667    3.9482532  0.010871035    112.35222    319.66065 
   64100    706.25265   0.26157033    12.052073   0.15113032 0.0066666667    3.8164165  0.010221605    112.44683    318.77347 
   64200    707.33883   0.26224821    12.070774   0.15113032 0.0066666667    4.4832941  0.010760995    111.40921     317.8909 
   64300    708.32472   0.26160177    12.086884   0.15113032 0.0066666667    3.6993312  0.010612249    112.64001    317.00283 
   64400    709.40021    0.2624835    12.104709   0.15113032 0.0066666667    3.9689751  0.011115811     115.1535    316.10406 
   64500    710.45932   0.26217941    12.122345   0.15113032 0.0066666667    4.4667533  0.010523398     114.3249    315.20884 
   64600    711.52344   0.26281397    12.139973   0.15113032 0.0066666667    4.6122325  0.010444503    112.33266    314.32219 
   64700    712.54652   0.26271181    12.158014   0.15113032 0.0066666667    4.4954251  0.010483713    112.36462    313.43539 
   64800    713.59475   0.26228023    12.175463   0.15113032 0.0066666667    3.9232424  0.010681088    112.60499    312.54755 
   64900    714.67659   0.26191111    12.193041   0.15113032 0.0066666667    3.6574583  0.011529204    113.23721    311.65703 
   65000    715.78963   0.26150303    12.212062   0.15113032 0.0066666667    4.0413679  0.010678518    110.22987     310.7795 
   65100    716.86721   0.26317026    12.230978   0.15113032 0.0066666667    4.0692698  0.010890405    111.77368    309.89516 
   65200    717.84794    0.2618014    12.248749   0.15113032 0.0066666667    3.7190957 0.0098749364    112.46746    309.00785 
   65300    718.87149   0.26281113    12.265781   0.15113032 0.0066666667    4.1360423 0.0092042435    111.88701    308.12298 
   65400      719.856   0.26268892    12.281953   0.15113032 0.0066666667    3.9146952  0.011168217     112.8859     307.2339 
   65500    720.96869   0.26188717    12.300577   0.15113032 0.0066666667    3.7015457 0.0093247306    112.13907    306.34793 
   65600    722.01323   0.26183224    12.317712   0.15113032 0.0066666667    3.9173077  0.010907605    111.91227     305.4629 
   65700    723.07054   0.26258774    12.334859   0.15113032 0.0066666667    4.0121855   0.01143451    113.96958    304.56942 
   65800    724.16848   0.26388936    12.353298   0.15113032 0.0066666667    3.6811012  0.010981872    113.35274    303.67847 
   65900    725.27151   0.26252489    12.371958   0.15113032 0.0066666667    3.8425035   0.01138555     112.8719     302.7895 
   66000    726.34554   0.26348764    12.388891   0.15113032 0.0066666667    4.6062512  0.010574749    112.79592    301.90083 
   66100    727.35413   0.26192698    12.404864   0.15113032 0.0066666667    4.6644804  0.009599267    111.57476    301.01716 
   66200    728.30755   0.26250965    12.421052   0.15113032 0.0066666667    3.7774132  0.009246298     111.4159    300.13409 
   66300    729.31909   0.26282572    12.436905   0.15113032 0.0066666667    3.9168727   0.01091043    111.80017    299.24942 
   66400    730.40993   0.26348944    12.454383   0.15113032 0.0066666667    3.7929707  0.010706602    111.63716    298.36537 
   66500    731.46815   0.26262918    12.471888   0.15113032 0.0066666667    3.7326402  0.010940642    111.97095    297.47995 
   66600    732.55192   0.26283149     12.48887   0.15113032 0.0066666667    3.7065078  0.010944885    112.61031    296.59196 
   66700    733.66484   0.26167123    12.506846   0.15113032 0.0066666667    4.0977824  0.011563068     112.1978     295.7056 
   66800    734.77691   0.26195864    12.525081   0.15113032 0.0066666667    3.9195407  0.010595253    110.72836     294.8251 
   66900    735.85757   0.26163784    12.542632   0.15113032 0.0066666667    3.5622606  0.010741567    112.99526    293.93557 
   67000    736.90174   0.26136088    12.560423   0.15113032 0.0066666667    3.7144343   0.01013957    109.70637    293.05912 
   67100    737.91395   0.26221106    12.577813   0.15113032 0.0066666667    4.0810525  0.010483629    113.60397    292.16724 
   67200    738.91891   0.26173427    12.594665   0.15113032 0.0066666667    4.3395724  0.010719835    115.07755    291.26988 
   67300    739.99174   0.26192189     12.61289   0.15113032 0.0066666667    4.1453174  0.010704881    112.86173     290.3809 
   67400    741.09385   0.26335228    12.631059   0.15113032 0.0066666667    3.9124425  0.011167125    112.69231    289.49258 
   67500    742.16511   0.26129814    12.649546   0.15113032 0.0066666667     4.325838  0.010282452    109.95198     288.6149 
   67600    743.18293   0.26222678    12.666329   0.15113032 0.0066666667    4.8767022  0.010179954    112.14786     287.7286 
   67700    744.20071    0.2607028    12.683823   0.15113032 0.0066666667    3.9561449  0.010377524    110.41978    286.84894 
   67800    745.18529   0.26295202    12.700446   0.15113032 0.0066666667    4.0400151 0.0084734291    112.34792    285.96182 
   67900    746.16164   0.26269645    12.718067   0.15113032 0.0066666667    4.2493172  0.010421529    112.76869    285.07312 
   68000    747.22449    0.2633022    12.736179   0.15113032 0.0066666667     3.831208  0.010076829    111.57277     284.1889 
   68100    748.25053   0.26358062    12.755318   0.15113032 0.0066666667    3.6534228 0.0097518226    110.91565    283.30713 
   68200     749.2721   0.26365122    12.773152   0.15113032 0.0066666667     4.248349  0.010669945    112.42498    282.41966 
   68300    750.35879   0.26293856    12.792278   0.15113032 0.0066666667    3.8654492  0.010743787    112.31465    281.53259 
   68400    751.42814   0.26253144    12.810128   0.15113032 0.0066666667    4.0385713  0.010101084    110.62755    280.65178 
   68500    752.49044   0.26137968    12.827718   0.15113032 0.0066666667    3.9633299  0.010668029    112.29835    279.76472 
   68600     753.5572   0.26214138    12.845431   0.15113032 0.0066666667    4.1368362  0.010888536    114.33104    278.87041 
   68700    754.62804   0.26310082    12.864158   0.15113032 0.0066666667    3.8263935  0.010821354    113.47688    277.97915 
   68800    755.69954   0.26216457    12.881519   0.15113032 0.0066666667    4.3399467  0.011124664    112.39591    277.09176 
   68900    756.78639   0.26257977    12.899891   0.15113032 0.0066666667    4.4851309  0.010876931    114.16983    276.19813 
   69000    757.86749   0.26213882    12.918381   0.15113032 0.0066666667    4.0091215  0.010411329    110.73181    275.31676 
   69100    758.88816   0.26243267    12.935143   0.15113032 0.0066666667    4.1740898 0.0098658981    111.70274    274.43182 
   69200    759.89999   0.26164222     12.95173   0.15113032 0.0066666667    4.2772628  0.010939978    112.05752     273.5456 
   69300    760.99394   0.26299185    12.968766   0.15113032 0.0066666667    3.9344193  0.011823049    112.88031    272.65647 
   69400    762.08806    0.2617791    12.987288   0.15113032 0.0066666667    3.9574841  0.011227972     110.8344    271.77456 
   69500    763.17837    0.2610185    13.006922   0.15113032 0.0066666667    4.0725923  0.010704306    113.25042    270.88415 
   69600    764.26516   0.26199814    13.025593   0.15113032 0.0066666667    4.2359759  0.011345687    112.87062    269.99505 
   69700    765.29275    0.2609478    13.042429   0.15113032 0.0066666667    4.1692221 0.0088803979    112.85905    269.10601 
   69800    766.17768   0.26171258    13.056754   0.15113032 0.0066666667    3.8038436 0.0091294214    110.93803    268.22361 
   69900    767.11212   0.26192701    13.074018   0.15113032 0.0066666667     4.029953 0.0093068709    111.39954    267.33955 
   70000    768.16701   0.26231292    13.092632   0.15113032 0.0066666667    3.5930581  0.011434792    110.64724    266.45806 
   70100    769.20266   0.26287282    13.110051   0.15113032 0.0066666667     3.615393  0.010889376     111.7758    265.57262 
   70200    770.28245   0.26213534    13.128623   0.15113032 0.0066666667    4.0636458   0.01085139     113.4179    264.68165 
   70300    771.37126   0.26322083    13.148177   0.15113032 0.0066666667    4.1615441  0.010888326    114.74563    263.78641 
   70400    772.46472   0.26269269    13.167813   0.15113032 0.0066666667    4.4031249  0.011183427    113.69488    262.89461 
   70500    773.56151    0.2622532    13.188329   0.15113032 0.0066666667    4.9300277 0.0098602693    114.37042    262.00068 
   70600     774.6403   0.26319315    13.207226   0.15113032 0.0066666667    3.8547394  0.010345541    114.58836    261.10611 
   70700    775.71369   0.26264829    13.227031   0.15113032 0.0066666667    4.0803515  0.010963969    111.55485    260.22143 
   70800    776.73399   0.26310814     13.24427   0.15113032 0.0066666667    4.2258739  0.010902123    112.87166    259.33241 
   70900    777.72534   0.26164212     13.26101   0.15113032 0.0066666667    3.9494975   0.01060194    112.37799    258.44499 
   71000    778.79699   0.26189827     13.27918   0.15113032 0.0066666667    4.1689027  0.011044135     113.4533    257.55413 
   71100    779.86241   0.26207386    13.297602   0.15113032 0.0066666667    4.4561938  0.010824783     113.0103    256.66469 
   71200    780.91076   0.26179914    13.316264   0.15113032 0.0066666667    4.2150285  0.010681974    114.38467    255.77097 
   71300    782.00286   0.26134826    13.336458   0.15113032 0.0066666667    4.0716886  0.010232392    112.28106    254.88389 
   71400    782.97137   0.26200913    13.354095   0.15113032 0.0066666667    3.8188973  0.010355109    111.64604    253.99884 
   71500    784.00943   0.26312207    13.373942   0.15113032 0.0066666667    4.0184088  0.010212637     113.5797    253.10767 
   71600    785.04009   0.26212428    13.393958   0.15113032 0.0066666667    4.2098679  0.010442496    114.57496     252.2135 
   71700    786.11972   0.26307014    13.413099   0.15113032 0.0066666667    3.8199854  0.010543728    114.12842    251.32074 
   71800    787.15384   0.26283476    13.432159   0.15113032 0.0066666667    3.9397025  0.009811373    113.11704    250.43111 
   71900    788.23672   0.26162103    13.452111   0.15113032 0.0066666667    4.1507872  0.011051418    112.42423    249.54361 
   72000    789.25441   0.26238464    13.471002   0.15113032 0.0066666667    3.9537454 0.0094729573       109.59    248.66506 
   72100    790.21955   0.26270533    13.488653   0.15113032 0.0066666667    3.9803542 0.0097098697     112.7958    247.77638 
   72200    791.28953   0.26291884      13.5082   0.15113032 0.0066666667    4.5250742  0.010991136    111.70149    246.89105 
   72300    792.36229     0.262068    13.529299   0.15113032 0.0066666667    4.7650115  0.010005826    113.28223     246.0009 
   72400    793.41508   0.26238568    13.549137   0.15113032 0.0066666667    3.8471736 0.0091482079    112.46357    245.11322 
   72500     794.4366   0.26153312    13.567599   0.15113032 0.0066666667    4.5331102  0.010424274    113.03674    244.22383 
   72600    795.48312   0.26217709    13.587103   0.15113032 0.0066666667    4.1592151  0.010238285    112.24125    243.33682 
   72700    796.55607   0.26127081    13.607168   0.15113032 0.0066666667    4.3645107  0.010705423    113.84581    242.44509 
   72800    797.59438   0.26172072    13.626041   0.15113032 0.0066666667    3.6481078  0.010324445    113.19837    241.55526 
   72900    798.64022   0.26161652    13.645244   0.15113032 0.0066666667     3.970545  0.011233084    112.39844     240.6678 
   73000    799.72207   0.26221885    13.666373   0.15113032 0.0066666667     3.654364   0.01069539    110.40806    239.78625 
   73100    800.73756   0.26162825    13.687114   0.15113032 0.0066666667    3.5016179  0.010490056    113.17237     238.8965 
   73200    801.83166   0.26240117    13.707762   0.15113032 0.0066666667    3.5702255  0.010430022    114.07944     238.0042 
   73300    802.89805   0.26214453    13.726731   0.15113032 0.0066666667    4.0844755  0.010528325    111.92681    237.11808 
   73400    803.96683   0.26245946    13.745611   0.15113032 0.0066666667    4.0165344 0.0096487935    113.48084     236.2275 
   73500    804.95442   0.26212551     13.76197   0.15113032 0.0066666667    4.1744272  0.010156397    112.40073    235.34001 
   73600    805.97012   0.26167298    13.779384   0.15113032 0.0066666667    3.7518759  0.011503649    110.70139     234.4574 
   73700    807.07717   0.26166852     13.79858   0.15113032 0.0066666667    3.9818343  0.011241983     112.7636    233.56885 
   73800     808.1583   0.26128196    13.817664   0.15113032 0.0066666667    3.9746516  0.011140642    112.03854    232.68234 
   73900    809.21538   0.26276156    13.835339   0.15113032 0.0066666667    3.9178244  0.010369732    113.18697    231.79261 
   74000    810.20723   0.26232656     13.85109   0.15113032 0.0066666667     5.007368 0.0098329221    110.31464    230.91098 
   74100    811.22438   0.26303648    13.867779   0.15113032 0.0066666667    3.7436609  0.010565421    111.96228    230.02462 
   74200    812.28325   0.26099717    13.886354   0.15113032 0.0066666667    4.0818887 0.0096101634     114.0291    229.13262 
   74300      813.202   0.26173709    13.901896   0.15113032 0.0066666667    3.6060394 0.0090868938    116.22891    228.23491 
   74400    814.13487   0.26175741    13.916485   0.15113032 0.0066666667    4.0369732 0.0094435176    113.03561    227.34567 
   74500    815.16906   0.26256011    13.934692   0.15113032 0.0066666667    5.1491028 0.0094723811    112.32761    226.45835 
   74600    816.17673   0.26191152     13.95103   0.15113032 0.0066666667    3.9644048 0.0094151751    112.72535    225.56995 
   74700    817.20729   0.26204886    13.967727   0.15113032 0.0066666667    3.6210175  0.010978438    112.59994    224.68189 
   74800    818.28286   0.26181875    13.986021   0.15113032 0.0066666667    3.7293861  0.010664638    113.63429     223.7911 
   74900    819.33156   0.26222116     14.00341   0.15113032 0.0066666667    4.0655195  0.010100211    113.54126    222.90059 
   75000    820.34099   0.26272132    14.018663   0.15113032 0.0066666667    4.2081969  0.010140641      114.275    222.00822 
   75100    821.37403   0.26217462    14.034764   0.15113032 0.0066666667    3.9453253 0.0099958147    110.71071    221.12523 
   75200    822.43022   0.26097557    14.050668   0.15113032 0.0066666667    3.5993032   0.01027846    112.82111    220.23662 
   75300    823.53845    0.2614856    14.068446   0.15113032 0.0066666667    3.7148624  0.011827928    115.02939    219.34243 
   75400    824.61434   0.26267279    14.085191   0.15113032 0.0066666667    4.1505027  0.010816738    113.47958    218.45218 
   75500    825.68447   0.26185814    14.102376   0.15113032 0.0066666667    4.0706526  0.010902539    111.50159    217.56703 
   75600     826.7655   0.26213192    14.118998   0.15113032 0.0066666667    4.0778816 0.0093366521    114.67128    216.67385 
   75700    827.84862   0.26137032    14.136414   0.15113032 0.0066666667    4.1021651  0.011314775    115.09719    215.77969 
   75800    828.91187   0.26122686    14.153085   0.15113032 0.0066666667    4.0117123  0.011287049    112.09454    214.89302 
   75900    830.00659   0.26162663    14.169816   0.15113032 0.0066666667    4.0851275  0.011142368    113.03345    214.00399 
   76000    831.08457     0.261473     14.18594   0.15113032 0.0066666667     3.862084  0.010867569    109.85484    213.12305 
   76100    832.16466   0.26118485    14.202429   0.15113032 0.0066666667    4.1473538  0.011004991    112.71823    212.23477 
   76200    833.24005   0.26156585    14.218987   0.15113032 0.0066666667    4.5818012  0.010580249    111.94121    211.34842 
   76300    834.31281   0.26182374    14.235884   0.15113032 0.0066666667    3.8143835  0.010064046    113.78534    210.45755 
   76400    835.36463   0.26350583    14.251781   0.15113032 0.0066666667    4.0358474  0.010102761    114.23856    209.56564 
   76500    836.44926   0.26290565    14.269289   0.15113032 0.0066666667    3.9548243  0.011030449    113.18276    208.67628 
   76600     837.5251   0.26132377    14.287445   0.15113032 0.0066666667      3.71518  0.011333724    110.80246    207.79273 
   76700    838.59373   0.26224744    14.303397   0.15113032 0.0066666667    4.0008712  0.010759905    111.82029    206.90664 
   76800    839.68602   0.26258428    14.320267   0.15113032 0.0066666667    4.0802471  0.011534194    113.79868    206.01583 
   76900    840.78363   0.26157879    14.338532   0.15113032 0.0066666667    3.9285804  0.010232802    112.22626    205.12875 
   77000    841.83806   0.26301595     14.35566   0.15113032 0.0066666667    3.7798156  0.010484199    111.62783    204.24308 
   77100    842.86942   0.26354975      14.3717   0.15113032 0.0066666667    3.9598019  0.010359899    111.05076    203.35877 
   77200    843.88871   0.26237101    14.388436   0.15113032 0.0066666667    4.4434307  0.010436773    112.07432      202.472 
   77300    844.95286   0.26337085    14.405314   0.15113032 0.0066666667    3.6942819  0.011044376    112.68662    201.58378 
   77400     846.0275   0.26134455    14.423312   0.15113032 0.0066666667     4.559315  0.010180062    112.90082    200.69507 
   77500    847.07032   0.26207307    14.440079   0.15113032 0.0066666667    3.9404512 0.0098395964    110.91221    199.81098 
   77600    848.07535   0.26309175    14.456899   0.15113032 0.0066666667    3.8838712  0.010276784    112.74135    198.92263 
   77700    849.13839    0.2623856    14.475058   0.15113032 0.0066666667    4.1893808 0.0096336235    111.52362    198.03706 
   77800    850.10506   0.26299946     14.49102   0.15113032 0.0066666667    3.8794225 0.0090313498    112.89742    197.14834 
   77900    851.17406   0.26181023    14.507462   0.15113032 0.0066666667    4.2904267  0.010887805    112.02397    196.26159 
   78000    852.27841    0.2621319    14.525636   0.15113032 0.0066666667    4.3286944  0.010650203    113.98894    195.37049 
   78100    853.31928   0.26220387    14.542294   0.15113032 0.0066666667    3.8073993  0.010097184    113.44843     194.4806 
   78200     854.3731   0.26270648    14.559027   0.15113032 0.0066666667    3.7148053  0.011328536    114.19918    193.58911 
   78300    855.46463   0.26258689    14.577277   0.15113032 0.0066666667    3.8510704  0.010803488    115.14607    192.69566 
   78400    856.46825   0.26302375    14.594186   0.15113032 0.0066666667    4.3233637 0.0098710107    114.11656    191.80444 
   78500    857.49637   0.26165327    14.611403   0.15113032 0.0066666667     4.515313  0.010460834    112.98108    190.91567 
   78600    858.54893   0.26143755     14.62881   0.15113032 0.0066666667    3.7672653  0.010545504    113.76448    190.02524 
   78700    859.56779   0.26193835    14.645638   0.15113032 0.0066666667    4.3925006 0.0092679586    112.59257    189.13733 
   78800    860.53646   0.26122447    14.661691   0.15113032 0.0066666667    4.0862786  0.010506292    113.38549    188.24774 
   78900    861.59654   0.26162851    14.678972   0.15113032 0.0066666667    3.9808301  0.011131651     111.5626    187.36202 
   79000    862.67198   0.26170958    14.697307   0.15113032 0.0066666667    3.5479148  0.011369872    110.95182    186.47759 
   79100    863.73798   0.26303143    14.714618   0.15113032 0.0066666667    4.0992514  0.011098035    113.03957    185.58872 
   79200    864.75309   0.26229584    14.731576   0.15113032 0.0066666667    3.8487054  0.011143975    112.88044    184.70019 
   79300    865.81747   0.26298644    14.749389   0.15113032 0.0066666667    4.2324523  0.010695813    111.49391    183.81454 
   79400    866.86945   0.26246981    14.767446   0.15113032 0.0066666667    3.5358585 0.0099421231    111.48061    182.92888 
   79500    867.98869   0.26239989    14.785505   0.15113032 0.0066666667    3.9278351 0.0098402599    112.22047    182.04168 
   79600    869.04707   0.26309396    14.803057   0.15113032 0.0066666667    4.1716858  0.010013411    113.20145    181.15249 
   79700    870.10666   0.26185272    14.820923   0.15113032 0.0066666667    4.0089679  0.011268473    113.84995    180.26202 
   79800    871.13188   0.26267558    14.838228   0.15113032 0.0066666667    4.1125554  0.010793505    111.72696    179.37582 
   79900    872.25252   0.26106734    14.857436   0.15113032 0.0066666667    3.7966628  0.011769161    114.17571    178.48476 
   80000     873.3757   0.26215275    14.875415   0.15113032 0.0066666667    4.2750621  0.010733638    112.52608    177.59695 
   80100    874.46523   0.26253208    14.893727   0.15113032 0.0066666667    4.1411603  0.010470973    110.53559    176.71312 
   80200     875.5556   0.26293237    14.913137   0.15113032 0.0066666667    3.7366033  0.010876098    112.14129    175.82603 
   80300      876.602   0.26273686    14.931105   0.15113032 0.0066666667    4.0224187 0.0082906384    110.62011    174.94194 
   80400    877.61872   0.26211241    14.950258   0.15113032 0.0066666667    3.8894067   0.01003865    113.32202    174.05255 
   80500    878.64987   0.26259504    14.967374   0.15113032 0.0066666667    4.8398807 0.0097578212     114.3572    173.16124 
   80600    879.60133   0.26332152    14.983062   0.15113032 0.0066666667    4.8130199 0.0095160224    112.99103    172.27252 
   80700    880.50569    0.2629092    14.997744   0.15113032 0.0066666667      4.29018 0.0090786402    113.65094    171.38257 
   80800    881.53652   0.26235015    15.015199   0.15113032 0.0066666667    3.7987855  0.010106978     114.4593    170.49118 
   80900    882.59374   0.26335933    15.032751   0.15113032 0.0066666667    3.9880757 0.0094652914    113.14432    169.60222 
   81000    883.66289   0.26312771    15.050472   0.15113032 0.0066666667     4.121563   0.01023037    111.59421    168.71616 
   81100    884.69561   0.26250176    15.067915   0.15113032 0.0066666667    3.8377594  0.010382624    111.82193    167.82965 
   81200    885.73626   0.26242927    15.086068   0.15113032 0.0066666667    3.9437867  0.010542486    112.02786    166.94274 
   81300     886.8187   0.26286266    15.104823   0.15113032 0.0066666667     3.801315  0.011183167    113.10798    166.05385 
   81400    887.87101   0.26281647    15.123244   0.15113032 0.0066666667    4.1796974  0.010594058    112.60031    165.16589 
   81500    888.93382   0.26225262    15.142309   0.15113032 0.0066666667     4.031837  0.010586153    111.41641    164.28007 
   81600    890.01196   0.26377426     15.16164   0.15113032 0.0066666667    3.9095418  0.010121563    113.06919    163.39126 
   81700    891.07483    0.2628743    15.179699   0.15113032 0.0066666667    4.0409466   0.01099011    114.31524     162.5003 
   81800    892.16388   0.26347134    15.198613   0.15113032 0.0066666667    3.9370194  0.011653687    111.39966    161.61447 
   81900    893.24842   0.26347111    15.216411   0.15113032 0.0066666667    3.6717239  0.011197358    112.94865     160.7259 
   82000    894.33509   0.26279322    15.235712   0.15113032 0.0066666667     3.731427  0.010854767     110.8967    159.84093 
   82100    895.41807   0.26210541     15.25414   0.15113032 0.0066666667    4.1159587 0.0096331051    113.43707    158.95152 
   82200    896.43849   0.26156998    15.272267   0.15113032 0.0066666667    4.1123281  0.010637598    115.01393    158.05951 
   82300    897.46356   0.26230171     15.29062   0.15113032 0.0066666667    4.7811694 0.0097104725    110.08874    157.17592 
   82400    898.50578   0.26308056    15.308079   0.15113032 0.0066666667    4.1588429   0.01027043    109.00063     156.2942 
   82500     899.5654    0.2620911    15.327378   0.15113032 0.0066666667    4.6176451   0.01030182    110.18774     155.4103 
   82600    900.54916   0.26329416    15.344846   0.15113032 0.0066666667    4.0152231  0.010323699    109.00596    154.52842 
   82700    901.52685   0.26244243    15.361111   0.15113032 0.0066666667    4.7310386  0.009888141    110.76907     153.6434 
   82800    902.51403   0.26274037    15.379183   0.15113032 0.0066666667    4.4133515  0.010452077    110.03182    152.75959 
   82900    903.59041    0.2630228    15.398369   0.15113032 0.0066666667    4.2259766  0.010570731     113.8207    151.86948 
   83000    904.63031    0.2637617    15.415077   0.15113032 0.0066666667    4.6550422  0.010472341    111.71473    150.98279 
   83100    905.69053    0.2625658    15.434666   0.15113032 0.0066666667    3.9015383  0.010643245    111.87872    150.09581 
   83200    906.77108   0.26338537    15.454213   0.15113032 0.0066666667    3.6986089   0.01092483    112.03151    149.20858 
   83300    907.85739   0.26327308     15.47361   0.15113032 0.0066666667    4.2062535  0.011349851    112.15754    148.32112 
   83400    908.95328   0.26332357     15.49219   0.15113032 0.0066666667    4.0803265  0.011141969    113.71016    147.43124 
   83500    910.02609   0.26281655     15.51126   0.15113032 0.0066666667    3.7437224  0.010800366    113.06715    146.54236 
   83600    911.05953   0.26297808    15.527514   0.15113032 0.0066666667    3.7106968  0.011398777    114.67642    145.65107 
   83700    912.11798   0.26314692    15.546066   0.15113032 0.0066666667    3.9972614  0.010967363    110.90667    144.76559 
   83800    913.17163    0.2625814     15.56412   0.15113032 0.0066666667    3.7698918  0.011577656    113.54797    143.87601 
   83900    914.26225   0.26244711    15.581953   0.15113032 0.0066666667    3.6175623  0.010157602    113.20784    142.98697 
   84000    915.29007   0.26313397    15.598505   0.15113032 0.0066666667    4.2508102  0.011221133    111.39989    142.10067 
   84100    916.32822    0.2620348    15.616877   0.15113032 0.0066666667    4.3538723  0.010342285    112.28082    141.21301 
   84200    917.38114   0.26322791    15.634084   0.15113032 0.0066666667    4.6602977 0.0099511927    112.44623     140.3251 
   84300    918.41393   0.26284812    15.652181   0.15113032 0.0066666667    4.5891946  0.010519991    112.28686    139.43743 
   84400    919.45087   0.26261625    15.670338   0.15113032 0.0066666667    3.9087493  0.010826029    112.47014    138.54947 
   84500    920.52674   0.26221918    15.688427   0.15113032 0.0066666667    3.8480259  0.010728001    112.88338    137.66092 
   84600    921.60238   0.26256974    15.704852   0.15113032 0.0066666667    3.7920633  0.010853273    111.93482    136.77374 
   84700    922.71152   0.26257814    15.722903   0.15113032 0.0066666667    3.9369737  0.010472199    113.73162    135.88399 
   84800    923.80187   0.26271788     15.74168   0.15113032 0.0066666667    4.1242176  0.011367011    112.04495    134.99664 
   84900    924.87967   0.26168622    15.760096   0.15113032 0.0066666667    3.6609878  0.011230704    112.97341    134.10798 
   85000    925.99905   0.26261102    15.779334   0.15113032 0.0066666667    3.9189707  0.010687227    111.27951     133.2217 
   85100    927.08017   0.26377617    15.798383   0.15113032 0.0066666667     3.988747  0.010239975    112.80059    132.33327 
   85200    928.12074   0.26267372    15.817626   0.15113032 0.0066666667    4.5494663  0.010243879    111.67021    131.44641 
   85300    929.18227   0.26243388    15.837057   0.15113032 0.0066666667    4.0774116  0.011310106    113.38218    130.55719 
   85400    930.30547   0.26311481    15.856913   0.15113032 0.0066666667    4.0093427  0.011356621    113.13611    129.66832 
   85500    931.29993     0.262687    15.874512   0.15113032 0.0066666667    4.8861859  0.010038553    112.51884    128.78028 
   85600    932.37308   0.26204493    15.894457   0.15113032 0.0066666667     4.276576  0.010780493    113.53509    127.89091 
   85700    933.44111   0.26263539    15.912967   0.15113032 0.0066666667    3.7645088  0.010759117    112.71529    127.00262 
   85800    934.49349   0.26208528    15.931403   0.15113032 0.0066666667    3.7882184  0.010810098    114.44478    126.11211 
   85900    935.57275   0.26215141    15.950486   0.15113032 0.0066666667    3.7821083  0.010928494    113.96478    125.22225 
   86000    936.70791   0.26231478    15.970715   0.15113032 0.0066666667    4.0080537  0.011185658    114.76683    124.33142 
   86100    937.75159   0.26297534    15.989707   0.15113032 0.0066666667    4.3334244 0.0098177787    111.74307    123.44444 
   86200    938.77641   0.26328093    16.007868   0.15113032 0.0066666667    3.6838684  0.010407538    113.44042     122.5553 
   86300    939.83445   0.26278629    16.025903   0.15113032 0.0066666667    3.5867075   0.01073713    113.12537    121.66657 
   86400    940.89612   0.26332767    16.043793   0.15113032 0.0066666667    4.2112057 0.0098407701     112.3795    120.77877 
   86500    941.90645   0.26266258    16.060765   0.15113032 0.0066666667    4.3741963 0.0097759761    112.50139    119.89081 
   86600    942.84749   0.26268616    16.076602   0.15113032 0.0066666667    4.4471466 0.0090356092    111.74295    119.00379 
   86700    943.81592    0.2622617     16.09304   0.15113032 0.0066666667    3.8388198  0.010358166    112.80508    118.11546 
   86800    944.83936   0.26373848    16.110006   0.15113032 0.0066666667    4.8758512 0.0094375145    113.57699    117.22621 
   86900    945.81226   0.26263047    16.126372   0.15113032 0.0066666667     3.904974  0.010755239    112.31702    116.33847 
   87000    946.86941   0.26254431     16.14438   0.15113032 0.0066666667     3.611089  0.011721993    111.19735    115.45207 
   87100    947.97514   0.26262071    16.163154   0.15113032 0.0066666667    4.0463442  0.010368242    111.56292     114.5652 
   87200    948.99007   0.26276035    16.179829   0.15113032 0.0066666667      4.07075  0.010973852    112.23762    113.67752 
   87300    950.05847    0.2628346    16.197066   0.15113032 0.0066666667     3.901791  0.010740605    112.15376    112.78993 
   87400     951.1205   0.26278611    16.214688   0.15113032 0.0066666667    4.0952378  0.010246715    113.65082    111.90063 
   87500    952.17262   0.26302041    16.231357   0.15113032 0.0066666667    3.8991194  0.010352498    112.92493    111.01217 
   87600    953.24659   0.26252683    16.248874   0.15113032 0.0066666667    4.1431684  0.010549441     113.6205    110.12294 
   87700    954.30178   0.26301125    16.265799   0.15113032 0.0066666667     4.011999  0.010804207    111.94435    109.23558 
   87800    955.39824   0.26338396    16.284067   0.15113032 0.0066666667    4.0083015  0.010455243    112.88199    108.34718 
   87900    956.51952   0.26308721    16.302043   0.15113032 0.0066666667    3.7355351  0.011486289    112.14357    107.45959 
   88000    957.55976   0.26323132    16.318556   0.15113032 0.0066666667    4.2732376   0.01085565    112.18622    106.57194 
   88100    958.65065   0.26186054     16.33691   0.15113032 0.0066666667    3.8174315  0.011284272     111.0159    105.68555 
   88200    959.72737   0.26339805    16.355436   0.15113032 0.0066666667    4.3650194  0.009568519    112.70793    104.79732 
   88300     960.7543     0.263422    16.372658   0.15113032 0.0066666667    4.1998761  0.010092817    114.62462    103.90713 
   88400    961.80715   0.26244328    16.390922   0.15113032 0.0066666667    4.2084406  0.010750251    111.86058     103.0198 
   88500    962.87103    0.2621526    16.409653   0.15113032 0.0066666667    3.8793881   0.01029684    113.36441    102.13092 
   88600    963.92972   0.26299706    16.429109   0.15113032 0.0066666667    4.0095678  0.011082763    111.83543    101.24361 
   88700    964.96793   0.26280512    16.448085   0.15113032 0.0066666667    3.7721362  0.010550307    111.93882    100.35618 
   88800     966.0087   0.26212176    16.466635   0.15113032 0.0066666667    4.1437691  0.010469085    112.71366    99.467955 
   88900    967.10564   0.26285426    16.486324   0.15113032 0.0066666667       4.1099   0.01111885     113.1958    98.579264 
   89000    968.14033    0.2618938    16.504248   0.15113032 0.0066666667    4.0320432 0.0099360981    110.21154    97.693541 
   89100    969.18432    0.2620896    16.522764   0.15113032 0.0066666667    3.9850536  0.010910097    113.84427    96.804228 
   89200    970.23154     0.262127    16.541056   0.15113032 0.0066666667    4.2339687 0.0096251916    111.76781    95.916915 
   89300    971.21586   0.26227369     16.55869   0.15113032 0.0066666667    4.4408985 0.0099812134    115.12341     95.02646 
   89400    972.25118   0.26342215    16.576507   0.15113032 0.0066666667     4.154648  0.010227724    111.61087    94.139296 
   89500    973.29801   0.26331456    16.594665   0.15113032 0.0066666667    3.8189522  0.010491005    112.22689    93.251535 
   89600    974.34139   0.26417214     16.61351   0.15113032 0.0066666667    4.3817547   0.01050051    113.22284    92.362857 
   89700    975.35499   0.26353642    16.631262   0.15113032 0.0066666667     4.040264  0.009717695    111.45291    91.475801 
   89800    976.36973   0.26367469    16.648943   0.15113032 0.0066666667    5.3087088 0.0093075313    112.39163    90.587872 
   89900     977.3719   0.26238977    16.668227   0.15113032 0.0066666667    4.8057759   0.01021319    113.50467    89.698959 
   90000    978.44321   0.26289095    16.687013   0.15113032 0.0066666667    4.7439777  0.010347192    111.42869    88.811886 
   90100    979.50349   0.26257815    16.706088   0.15113032 0.0066666667    4.0531971  0.010902077    112.14947    87.924157 
   90200    980.59371   0.26261047    16.727999   0.15113032 0.0066666667    4.5819649 0.0098722707    111.34518    87.037119 
   90300    981.65321   0.26251712    16.747793   0.15113032 0.0066666667    4.3920199 0.0099547936    112.29495    86.149241 
   90400     982.6958    0.2620675    16.768088   0.15113032 0.0066666667    4.8828883 0.0099593106    111.44533    85.262078 
   90500    983.74884   0.26158431     16.78762   0.15113032 0.0066666667    3.9841004  0.010990631    112.49252    84.374015 
   90600    984.82979   0.26283558    16.807362   0.15113032 0.0066666667    4.2792901  0.010304161    111.81379    83.486511 
   90700    985.92773    0.2631129    16.827119   0.15113032 0.0066666667     4.344424  0.010138958     113.6852    82.597481 
   90800    986.97271   0.26267157     16.84571   0.15113032 0.0066666667    3.9055069  0.010426271    113.25528    81.708811 
   90900    988.05338   0.26276608     16.86594   0.15113032 0.0066666667    4.0649745  0.011320584     111.9114    80.821215 
   91000    989.15377   0.26403998    16.884667   0.15113032 0.0066666667    3.7976209  0.010801139    113.52258    79.932351 
   91100    990.15329   0.26314238    16.902887   0.15113032 0.0066666667    4.6208956 0.0097682796     111.9589    79.044707 
   91200     991.2212   0.26214308    16.920989   0.15113032 0.0066666667    4.0871224   0.01110546    114.22266    78.155343 
   91300    992.27642   0.26319738    16.938967   0.15113032 0.0066666667    3.9756144 0.0097693532    112.63977    77.267181 
   91400    993.26043   0.26207246    16.955591   0.15113032 0.0066666667    4.1729573  0.010288587    112.59396    76.379055 
   91500    994.31218   0.26162013    16.973672   0.15113032 0.0066666667    4.2210095  0.010865487    111.84682    75.491479 
   91600    995.33346     0.263234    16.990699   0.15113032 0.0066666667    4.4281097 0.0097244397    111.13483    74.604414 
   91700    996.30098   0.26240627    17.007983   0.15113032 0.0066666667    4.5241742 0.0098382981    112.04004    73.716664 
   91800    997.25061    0.2632239    17.024617   0.15113032 0.0066666667    4.7161833  0.009465021    112.60019    72.828506 
   91900    998.29951   0.26365455    17.042458   0.15113032 0.0066666667    4.0206921  0.010914971    113.18425    71.939945 
   92000    999.34195   0.26183417    17.061123   0.15113032 0.0066666667    4.2827909  0.010095164    110.42611    71.053314 
   92100    1000.3397   0.26179946    17.077714   0.15113032 0.0066666667    4.4676363 0.0097153046    111.95137    70.165583 
   92200    1001.3615   0.26219889    17.096123   0.15113032 0.0066666667    4.0517271   0.01064448    113.07688    69.277088 
   92300    1002.4341   0.26085073    17.116437   0.15113032 0.0066666667    4.3509415  0.010751969    111.17993    68.389861 
   92400    1003.4841   0.26215704    17.134733   0.15113032 0.0066666667    4.2739969  0.011353906    112.65435    67.501639 
   92500    1004.4695   0.26350493    17.151903   0.15113032 0.0066666667    4.9737911 0.0088869827    112.55634    66.613481 
   92600    1005.4452   0.26257768    17.169529   0.15113032 0.0066666667    4.3581227  0.010212854    111.44047    65.726033 
   92700    1006.4625   0.26219957    17.186773   0.15113032 0.0066666667    4.2390319  0.010132529     112.9276    64.837634 
   92800    1007.4868   0.26230115    17.204447   0.15113032 0.0066666667    4.1827537 0.0098892284    112.63608    63.949418 
   92900    1008.5456    0.2615043    17.223487   0.15113032 0.0066666667    4.2150278  0.010964608    112.59843    63.061226 
   93000    1009.5959   0.26263961     17.24243   0.15113032 0.0066666667    3.7151886  0.011228646    111.93706    62.173429 
   93100    1010.7144   0.26106404    17.261791   0.15113032 0.0066666667    3.7312313  0.010991715    111.87361    61.285658 
   93200    1011.7741   0.26167782    17.279579   0.15113032 0.0066666667    4.4422231 0.0096170325    114.34737    60.396462 
   93300    1012.7313   0.26197485    17.295206   0.15113032 0.0066666667      3.73792  0.010902619    113.24504     59.50791 
   93400    1013.7996   0.26135249    17.313273   0.15113032 0.0066666667    4.1803163  0.010893228    116.43748    58.617658 
   93500    1014.8856   0.26088209    17.331248   0.15113032 0.0066666667    3.7841854  0.010473244    113.96986    57.728767 
   93600    1015.9875   0.26192271     17.34905   0.15113032 0.0066666667    4.2919637  0.011235325    113.16786    56.840325 
   93700    1017.0932   0.26180161    17.368477   0.15113032 0.0066666667    3.7568236  0.010596423    113.83843    55.951543 
   93800    1018.1254   0.26205973    17.386308   0.15113032 0.0066666667    4.2325015  0.010293861    113.40904    55.063003 
   93900    1019.1394   0.26230491    17.402986   0.15113032 0.0066666667    4.2575763  0.010523101     112.4886    54.174946 
   94000    1020.2318    0.2623803    17.422572   0.15113032 0.0066666667    3.8535099  0.011272337    107.52539    53.289507 
   94100    1021.3357   0.26317186    17.441677   0.15113032 0.0066666667    4.1986088  0.011017874    109.65655    52.402839 
   94200    1022.4271   0.26196936    17.461184   0.15113032 0.0066666667    3.6772993  0.011689877    108.67663    51.516625 
   94300    1023.4976   0.26203721     17.48011   0.15113032 0.0066666667     3.875041  0.010789362    111.33168    50.629011 
   94400    1024.6031   0.26210685    17.499512   0.15113032 0.0066666667    3.9446744   0.01099043    112.54686      49.7408 
   94500    1025.6704   0.26189921    17.518103   0.15113032 0.0066666667    4.0639423 0.0099811245    110.73766    48.853433 
   94600    1026.6925    0.2624355    17.535311   0.15113032 0.0066666667     4.069432 0.0093591114    113.19323    47.964915 
   94700    1027.7526   0.26248188    17.554216   0.15113032 0.0066666667    4.1878902  0.010459437     116.3072    47.075084 
   94800     1028.828   0.26212873    17.572593   0.15113032 0.0066666667    3.7104081  0.011428893    115.77076    46.185535 
   94900    1029.9346   0.26174561    17.591261   0.15113032 0.0066666667    3.5506177  0.011077249    113.17045    45.297106 
   95000    1031.0221   0.26270522     17.60864   0.15113032 0.0066666667    3.7309292  0.011282024    114.29967    44.408228 
   95100    1032.1233   0.26282921    17.626698   0.15113032 0.0066666667    3.7238622    0.0103314    113.01454    43.519893 
   95200    1033.1584   0.26255512    17.643475   0.15113032 0.0066666667    3.8464964  0.012050199    114.78435    42.630876 
   95300    1034.2352   0.26171097    17.660831   0.15113032 0.0066666667    3.7955717  0.010293456    113.02766    41.742565 
   95400    1035.2472   0.26203951    17.676024   0.15113032 0.0066666667    4.3333044  0.010289153    115.15034    40.853475 
   95500    1036.2919   0.26176553    17.692721   0.15113032 0.0066666667    3.8607368  0.010057752    113.54489    39.965007 
   95600     1037.283   0.26228389    17.708533   0.15113032 0.0066666667    3.9552579  0.010426692    113.04006    39.076736 
   95700    1038.3535   0.26369225    17.725557   0.15113032 0.0066666667    4.1284106  0.010605747    115.88626    38.187496 
   95800    1039.3584   0.26260968    17.741968   0.15113032 0.0066666667    4.4019746  0.010146764    112.41275    37.299481 
   95900     1040.397   0.26254141    17.759371   0.15113032 0.0066666667    3.7784907  0.010791026    111.83355    36.411659 
   96000     1041.476   0.26392822    17.776143   0.15113032 0.0066666667    3.8904229  0.011442851    111.97606    35.523776 
   96100     1042.565   0.26342575    17.793402   0.15113032 0.0066666667    4.4511768    0.0104706    111.52412     34.63603 
   96200    1043.5918   0.26305861    17.808867   0.15113032 0.0066666667    4.0332918   0.01033622    111.83066    33.748168 
   96300    1044.6033   0.26333715    17.825119   0.15113032 0.0066666667    4.5528393  0.010793598    111.84032    32.860289 
   96400     1045.631   0.26283994    17.841216   0.15113032 0.0066666667    3.9910469 0.0099955902    112.14923    31.972306 
   96500    1046.6938    0.2628242    17.859071   0.15113032 0.0066666667    4.0594135  0.010475149     110.9899    31.084653 
   96600    1047.7746   0.26428929    17.876943   0.15113032 0.0066666667    3.9234235  0.010517742    112.77973    30.196469 
   96700    1048.7973   0.26267694    17.894544   0.15113032 0.0066666667    4.1358856  0.010335884    111.55859    29.308619 
   96800    1049.7905   0.26316823    17.910753   0.15113032 0.0066666667    3.9670707  0.010070579    113.99312    28.420119 
   96900    1050.7821   0.26384421    17.926566   0.15113032 0.0066666667    3.9537022  0.011747816    112.54251    27.532004 
   97000    1051.8864   0.26223058    17.944931   0.15113032 0.0066666667    4.1136995  0.011361026    109.35989    26.644688 
   97100    1052.9772   0.26334741    17.963241   0.15113032 0.0066666667    4.3105118  0.010583512    110.26856    25.757091 
   97200     1053.974   0.26374074    17.978878   0.15113032 0.0066666667    3.9038463  0.010363107    111.01205    24.869279 
   97300    1055.0471   0.26185465    17.996725   0.15113032 0.0066666667     3.766738  0.010662205    113.04941     23.98099 
   97400    1056.1483   0.26155272    18.014828   0.15113032 0.0066666667    3.9441706  0.010580834    112.50984    23.092822 
   97500    1057.2469   0.26276433    18.033483   0.15113032 0.0066666667    4.0119725   0.01020529    113.20387    22.204513 
   97600    1058.3435   0.26313265    18.051379   0.15113032 0.0066666667    3.5137037  0.011211721    114.73405    21.315924 
   97700    1059.3943   0.26393969    18.069172   0.15113032 0.0066666667    3.8779682  0.011004008    111.53631    20.427958 
   97800    1060.4547   0.26219158    18.086514   0.15113032 0.0066666667    3.9248512  0.010610616    113.15915    19.539686 
   97900     1061.527   0.26278839    18.103852   0.15113032 0.0066666667    4.7031302  0.010264641    111.46298    18.651711 
   98000    1062.5505   0.26208258    18.121536   0.15113032 0.0066666667    3.7956605  0.010881227    112.13101    17.763609 
   98100    1063.5835   0.26228135    18.139067   0.15113032 0.0066666667    3.7633949  0.010961414    113.91025    16.875229 
   98200    1064.6757   0.26300764    18.157556   0.15113032 0.0066666667    4.3086561  0.010302206    111.14608    15.987271 
   98300    1065.6105    0.2621991    18.173467   0.15113032 0.0066666667    3.9977825 0.0092568438    112.44509    15.099109 
   98400     1066.529   0.26166293    18.189622   0.15113032 0.0066666667    4.4868693 0.0097412557     111.7774    14.211031 
   98500     1067.531   0.26248476    18.206152   0.15113032 0.0066666667    4.0801139  0.010381514    112.49328    13.322853 
   98600    1068.5963   0.26212906    18.224959   0.15113032 0.0066666667    3.9578293  0.010908756    112.74111    12.434646 
   98700     1069.711   0.26241162    18.244218   0.15113032 0.0066666667     4.072616  0.011637952     114.6847    11.546243 
   98800    1070.8365   0.26344881    18.263045   0.15113032 0.0066666667     3.494062  0.010956773    113.89054    10.657947 
   98900     1071.939   0.26272725    18.281687   0.15113032 0.0066666667    3.9804732  0.011252716    114.55828    9.7696153 
   99000    1072.9925   0.26270518    18.299997   0.15113032 0.0066666667    3.6073048  0.010200602     112.2942    8.8814924 
   99100    1074.0594   0.26267312    18.317765   0.15113032 0.0066666667     3.861689  0.010441113    114.25882    7.9932256 
   99200    1075.1691   0.26259192    18.337379   0.15113032 0.0066666667    3.7472328   0.01096065    115.43824     7.104913 
   99300    1076.2819   0.26198145    18.357258   0.15113032 0.0066666667    4.0635696  0.010972949    111.60243    6.2168548 
   99400    1077.3874   0.26276523    18.376089   0.15113032 0.0066666667    4.0840488  0.010984207     112.4323    5.3287405 
   99500    1078.4973   0.26187898    18.396569   0.15113032 0.0066666667    3.7401204  0.010960981     114.2421    4.4405528 
   99600    1079.5627   0.26283204    18.414585   0.15113032 0.0066666667     4.115802   0.01131096    112.61833    3.5524416 
   99700    1080.6453   0.26365881     18.43353   0.15113032 0.0066666667    4.1328932  0.010809042     114.6752    2.6642828 
   99800    1081.7559   0.26255325    18.452913   0.15113032 0.0066666667    3.8453748  0.010825806    110.07216    1.7762294 
   99900    1082.8346    0.2629534    18.471523   0.15113032 0.0066666667    3.5541029  0.010187358    111.56544   0.88812295 
  100000    1083.8552   0.26388574    18.488691   0.15113032 0.0066666667    4.5184575  0.010554952    112.68226            0 
Loop time of 888.122 on 4 procs for 100000 steps with 180747 atoms

Performance: 102682.689 tau/day, 112.597 timesteps/s
244.2% CPU use with 1 MPI tasks x 4 OpenMP threads

MPI task timing breakdown:
Section |  min time  |  avg time  |  max time  |%varavg| %total
---------------------------------------------------------------
Pair    | 350.86     | 350.86     | 350.86     |   0.0 | 39.51
Neigh   | 12.563     | 12.563     | 12.563     |   0.0 |  1.41
Comm    | 111.62     | 111.62     | 111.62     |   0.0 | 12.57
Output  | 2.9252     | 2.9252     | 2.9252     |   0.0 |  0.33
Modify  | 342.37     | 342.37     | 342.37     |   0.0 | 38.55
Other   |            | 67.79      |            |       |  7.63

Nlocal:    180747 ave 180747 max 180747 min
Histogram: 1 0 0 0 0 0 0 0 0 0
Nghost:    67030 ave 67030 max 67030 min
Histogram: 1 0 0 0 0 0 0 0 0 0
Neighs:    0 ave 0 max 0 min
Histogram: 1 0 0 0 0 0 0 0 0 0

Total # of neighbors = 0
Ave neighs/atom = 0
Neighbor list builds = 28679
Dangerous builds = 0

Please see the log.cite file for references relevant to this simulation

Total wall time: 0:15:26
