#package gpu 1
#suffix gpu
#variable rho equal 0.05

units lj
atom_style atomic

lattice fcc 0.975
Lattice spacing in x,y,z = 1.60085 1.60085 1.60085
region box block 0 60 0 30 0 30
create_box 2 box
Created orthogonal box = (0 0 0) to (96.0513 48.0256 48.0256)
  1 by 1 by 1 MPI processor grid
create_atoms 1 box
Created 216000 atoms
  Time spent = 0.040396 secs
mass 1 4.0
mass 2 0.5


pair_style lj/cut 2.5
pair_coeff 1 1 1.0 1.0 2.5
pair_coeff 2 2 0.5 0.88 2.5
pair_coeff 1 2 0.2 1.0 2.5
#pair_coeff 1 2 1.5 0.8 2.5
pair_modify mix geometric
neigh_modify every 1 delay 0 check yes

variable R equal 12
region cylinder1 cylinder x $(0.5*ly) $(0.5*lz) $R EDGE EDGE units box
region cylinder1 cylinder x 24.012813670346833561 $(0.5*lz) $R EDGE EDGE units box
region cylinder1 cylinder x 24.012813670346833561 24.012813670346833561 $R EDGE EDGE units box
region cylinder1 cylinder x 24.012813670346833561 24.012813670346833561 12 EDGE EDGE units box

group cylinder1 region cylinder1
41820 atoms in group cylinder1
variable V equal PI*v_R*v_R*lx
# variable rho equal 0.1
variable natoms equal $V*${rho}
variable natoms equal 43452.5639148185*${rho}
variable natoms equal 43452.5639148185*0.20
variable natoms_in_cylinder equal count(cylinder1)
variable delete_fraction equal (${natoms_in_cylinder}-${natoms})/${natoms_in_cylinder}
variable delete_fraction equal (41820-${natoms})/${natoms_in_cylinder}
variable delete_fraction equal (41820-8690.5127829637)/${natoms_in_cylinder}
variable delete_fraction equal (41820-8690.5127829637)/41820
set group cylinder1 type 2
  41820 settings made for type
delete_atoms porosity cylinder1 ${delete_fraction} 12345
delete_atoms porosity cylinder1 0.79219242508456 12345
Deleted 33172 atoms, new total = 182828
#delete_atoms region cylinder1

region cylinder2 cylinder x $(0.5*ly) $(0.5*lz) $(v_R+6) EDGE EDGE units box
region cylinder2 cylinder x 24.012813670346833561 $(0.5*lz) $(v_R+6) EDGE EDGE units box
region cylinder2 cylinder x 24.012813670346833561 24.012813670346833561 $(v_R+6) EDGE EDGE units box
region cylinder2 cylinder x 24.012813670346833561 24.012813670346833561 18 EDGE EDGE units box
region cylinder3 cylinder x $(0.5*ly) $(0.5*lz) $(v_R+9) EDGE EDGE units box
region cylinder3 cylinder x 24.012813670346833561 $(0.5*lz) $(v_R+9) EDGE EDGE units box
region cylinder3 cylinder x 24.012813670346833561 24.012813670346833561 $(v_R+9) EDGE EDGE units box
region cylinder3 cylinder x 24.012813670346833561 24.012813670346833561 21 EDGE EDGE units box
group cylinder2 region cylinder2
62648 atoms in group cylinder2
group cylinder3 region cylinder3
96488 atoms in group cylinder3

group nve region cylinder3
96488 atoms in group nve
group langevin subtract cylinder3 cylinder2
33840 atoms in group langevin
group frozen subtract all cylinder3
86340 atoms in group frozen

region force cylinder x $(0.5*ly) $(0.5*lz) $(v_R-1) EDGE EDGE units box
region force cylinder x 24.012813670346833561 $(0.5*lz) $(v_R-1) EDGE EDGE units box
region force cylinder x 24.012813670346833561 24.012813670346833561 $(v_R-1) EDGE EDGE units box
region force cylinder x 24.012813670346833561 24.012813670346833561 11 EDGE EDGE units box
group gas type 2
8648 atoms in group gas

fix nve nve nve
fix langevin langevin langevin 0.50 0.50 1.0 12345 zero yes

variable gascount equal count(gas)

variable dP equal 0.001
variable force equal v_dP/v_rho

velocity all create 0.1 87287
velocity frozen set 0 0 0

compute chunk all chunk/atom bin/cylinder x lower $(lx) $(0.5*ly) $(0.5*lz) 0 $(v_R+3) 80 units box
compute chunk all chunk/atom bin/cylinder x lower 96.051254681387334244 $(0.5*ly) $(0.5*lz) 0 $(v_R+3) 80 units box
compute chunk all chunk/atom bin/cylinder x lower 96.051254681387334244 24.012813670346833561 $(0.5*lz) 0 $(v_R+3) 80 units box
compute chunk all chunk/atom bin/cylinder x lower 96.051254681387334244 24.012813670346833561 24.012813670346833561 0 $(v_R+3) 80 units box
compute chunk all chunk/atom bin/cylinder x lower 96.051254681387334244 24.012813670346833561 24.012813670346833561 0 15 80 units box

compute displacement all displace/atom
compute mean_displacement nve reduce ave c_displacement[4]

compute vmax all reduce max vx
variable volume equal count(gas)/v_V

thermo_style custom step time temp c_mean_displacement v_volume v_force c_vmax dt spcpu cpuremain
thermo 100

compute keAtom all ke/atom
dump dump all custom 1000 trajectory.bin id type x y z c_keAtom

fix flow gas addforce v_force 0.0 0.0
run 5000
No /omp style for force computation currently active
Per MPI rank memory allocation (min/avg/max) = 90.86 | 90.86 | 90.86 Mbytes
Step Time Temp c_mean_displacement v_volume v_force c_vmax Dt S/CPU CPULeft 
       0            0  0.052788576            0   0.19902163        0.005   0.77494152        0.005            0            0 
     100          0.5   0.06924548  0.077947576   0.19902163        0.005    1.9673247        0.005    141.13274    34.719136 
     200            1   0.10000347   0.13484276   0.19902163        0.005    2.2888776        0.005    140.93716    34.034157 
     300          1.5   0.11625289   0.19348197   0.19902163        0.005     2.430429        0.005    138.29119    33.545498 
     400            2   0.12926246   0.24409563   0.19902163        0.005    3.3974736        0.005    139.33241    32.877463 
     500          2.5   0.13723563   0.28946528   0.19902163        0.005    2.9405163        0.005    139.15989    32.197572 
     600            3    0.1424969   0.32274607   0.19902163        0.005    2.5828397        0.005    138.03936    31.547544 
     700          3.5   0.14899125   0.33966777   0.19902163        0.005    2.7611903        0.005    137.31624    30.899708 
     800            4   0.15674877   0.34408706   0.19902163        0.005    2.9498431        0.005    136.71624    30.248542 
     900          4.5   0.16347389   0.33863537   0.19902163        0.005    2.9534612        0.005    138.27067    29.542076 
    1000            5   0.16802442   0.32838427   0.19902163        0.005    2.8924736        0.005    137.99785    28.837979 
    1100          5.5   0.17219328   0.32024888   0.19902163        0.005    3.0022475        0.005    137.30343    28.143141 
    1200            6    0.1745254   0.32014101   0.19902163        0.005    4.2613452        0.005    134.47256    27.491274 
    1300          6.5   0.17704936   0.32776358   0.19902163        0.005    3.2600442        0.005    135.37646    26.811156 
    1400            7   0.18038418   0.33976897   0.19902163        0.005    3.7802659        0.005    133.84228    26.144444 
    1500          7.5   0.18425177   0.35248031   0.19902163        0.005    2.8844435        0.005    137.90022    25.415705 
    1600            8   0.18809866   0.36493917   0.19902163        0.005    3.5895591        0.005    136.90528    24.698615 
    1700          8.5   0.19266651   0.37777715   0.19902163        0.005    3.0673392        0.005    134.41455    24.006228 
    1800            9   0.19724143   0.39121118   0.19902163        0.005    3.2739436        0.005      132.539    23.326826 
    1900          9.5   0.20158694   0.40625821   0.19902163        0.005    3.5459576        0.005    133.56218     22.63009 
    2000           10   0.20661346   0.42306862   0.19902163        0.005    3.4690278        0.005     135.5138    21.911979 
    2100         10.5    0.2092467   0.44110673   0.19902163        0.005    3.3610363        0.005    134.41856    21.200287 
    2200           11   0.21090932   0.45893544   0.19902163        0.005    3.5828207        0.005    132.90113    20.496472 
    2300         11.5   0.21264641   0.47400049   0.19902163        0.005    3.3987836        0.005    132.37582    19.791934 
    2400           12   0.21439224   0.48509468   0.19902163        0.005    3.3382312        0.005    131.92178    19.085973 
    2500         12.5   0.21593899   0.49236904   0.19902163        0.005    3.2972702        0.005    134.47946    18.361429 
    2600           13   0.21773187   0.49607508   0.19902163        0.005     3.669349        0.005    132.68231    17.644716 
    2700         13.5    0.2193188   0.49827479   0.19902163        0.005    3.7944005        0.005     134.6375    16.915941 
    2800           14   0.22010153   0.50007754   0.19902163        0.005    3.2396791        0.005    132.34587    16.196274 
    2900         14.5   0.22081867   0.50238566   0.19902163        0.005    3.4467724        0.005    133.97803    15.467463 
    3000           15    0.2220882   0.50627249   0.19902163        0.005    3.3813268        0.005    130.54098    14.750583 
    3100         15.5   0.22366062   0.51269866   0.19902163        0.005    3.1515201        0.005    131.94789    14.025523 
    3200           16     0.224357   0.52190407   0.19902163        0.005    3.3780043        0.005    129.96092    13.304931 
    3300         16.5   0.22577347   0.53205376   0.19902163        0.005    3.2583725        0.005    134.20227    12.568849 
    3400           17   0.22840432    0.5424612   0.19902163        0.005    3.1197158        0.005    134.84449    11.830565 
    3500         17.5   0.23022813   0.55286584   0.19902163        0.005    3.5760672        0.005    134.23934    11.093523 
    3600           18   0.23177226   0.56377719   0.19902163        0.005    4.1553393        0.005    134.89271     10.35464 
    3700         18.5   0.23361693   0.57380727   0.19902163        0.005    3.6957186        0.005    135.19999    9.6150329 
    3800           19   0.23446425   0.58437718   0.19902163        0.005    3.5911374        0.005    135.16566    8.8754829 
    3900         19.5   0.23528432   0.59488108   0.19902163        0.005    3.6360635        0.005    135.61252    8.1352307 
    4000           20   0.23696235   0.60522288   0.19902163        0.005    4.3189291        0.005    131.81569    7.4004315 
    4100         20.5   0.23908141    0.6155268   0.19902163        0.005    3.4838447        0.005    135.42485    6.6600311 
    4200           21   0.23910255   0.62518984   0.19902163        0.005    3.7992015        0.005    136.36833    5.9187525 
    4300         21.5   0.23910594   0.63471429   0.19902163        0.005     3.672385        0.005    133.48372    5.1804241 
    4400           22    0.2406802   0.64260529   0.19902163        0.005    3.6949278        0.005    133.81436    4.4413513 
    4500         22.5   0.23922738   0.65008367   0.19902163        0.005    3.5953304        0.005    133.41854     3.702159 
    4600           23   0.24084188   0.65559288   0.19902163        0.005    3.6591413        0.005    132.48981    2.9629744 
    4700         23.5   0.24179159   0.66139161   0.19902163        0.005    3.6306908        0.005    134.44277    2.2224266 
    4800           24   0.24185789    0.6663286   0.19902163        0.005     3.641048        0.005    133.23029    1.4820249 
    4900         24.5   0.24265466   0.67282221   0.19902163        0.005    3.6494573        0.005    132.27095   0.74131877 
    5000           25   0.24193844    0.6797362   0.19902163        0.005    3.6724643        0.005    132.80477            0 
Loop time of 37.0776 on 4 procs for 5000 steps with 182828 atoms

Performance: 58256.165 tau/day, 134.852 timesteps/s
247.6% CPU use with 1 MPI tasks x 4 OpenMP threads

MPI task timing breakdown:
Section |  min time  |  avg time  |  max time  |%varavg| %total
---------------------------------------------------------------
Pair    | 15.926     | 15.926     | 15.926     |   0.0 | 42.95
Neigh   | 0.28198    | 0.28198    | 0.28198    |   0.0 |  0.76
Comm    | 3.9753     | 3.9753     | 3.9753     |   0.0 | 10.72
Output  | 0.15644    | 0.15644    | 0.15644    |   0.0 |  0.42
Modify  | 13.459     | 13.459     | 13.459     |   0.0 | 36.30
Other   |            | 3.279      |            |       |  8.84

Nlocal:    182828 ave 182828 max 182828 min
Histogram: 1 0 0 0 0 0 0 0 0 0
Nghost:    67217 ave 67217 max 67217 min
Histogram: 1 0 0 0 0 0 0 0 0 0
Neighs:    0 ave 0 max 0 min
Histogram: 1 0 0 0 0 0 0 0 0 0

Total # of neighbors = 0
Ave neighs/atom = 0
Neighbor list builds = 621
Dangerous builds = 0

reset_timestep 0
fix vx all ave/chunk 10 10000 100000 chunk vx ave running file velocity.txt

fix dt all dt/reset 10 NULL NULL 0.05 units box

run 100000
No /omp style for force computation currently active
Per MPI rank memory allocation (min/avg/max) = 100.9 | 100.9 | 100.9 Mbytes
Step Time Temp c_mean_displacement v_volume v_force c_vmax Dt S/CPU CPULeft 
       0           25   0.24193844    0.6797362   0.19902163        0.005    3.6724643  0.011396302            0            0 
     100    26.122155    0.2444748   0.69696674   0.19902163        0.005    3.7672173  0.011381661    109.44941    912.75139 
     200    27.276266   0.24525532   0.71597955   0.19902163        0.005    3.7151247  0.011999682    110.47076    907.62164 
     300    28.410018   0.24827383   0.73405692   0.19902163        0.005    3.5727839  0.011014483    110.54672    905.10223 
     400    29.575708   0.24972811   0.75326128   0.19902163        0.005     3.789469  0.012061375    112.21909    900.03319 
     500    30.716865   0.25007485   0.77360866   0.19902163        0.005    3.7162571  0.011104178    110.30768    899.70807 
     600    31.872483   0.24950974   0.78903484   0.19902163        0.005     3.693796   0.01177997    109.32714    900.53617 
     700    32.997412   0.25125792   0.80353947   0.19902163        0.005    3.5849313   0.01163522     110.3653    899.64579 
     800    34.121506   0.25090542   0.81986792   0.19902163        0.005    3.5784465  0.012321239    112.35526    896.76157 
     900    35.275905   0.25242626    0.8361181   0.19902163        0.005    3.7189755  0.011800256    110.50187     895.9642 
    1000    36.446121   0.25262132   0.85367064   0.19902163        0.005    3.7792986  0.012263087    108.72283    896.61132 
    1100    37.617449   0.25482762   0.87206876   0.19902163        0.005      4.05852  0.010838175    109.20966    896.60483 
    1200    38.716958   0.25375289   0.89061816   0.19902163        0.005    3.2568402  0.011690047    110.78759    895.37319 
    1300    39.863913   0.25478828   0.90902599   0.19902163        0.005    3.3701103  0.010949307    112.91003     892.9039 
    1400    41.030855   0.25510447   0.92738624   0.19902163        0.005    4.1193714  0.010063372    113.96088    890.08566 
    1500    42.130558    0.2552449   0.94216858   0.19902163        0.005    4.3023707  0.010944449    111.66287    888.71204 
    1600    43.254182   0.25625668   0.95866017   0.19902163        0.005    3.8692922  0.010458202    110.42914    888.01351 
    1700    44.380953   0.25582332   0.97622319   0.19902163        0.005    3.6056381  0.011949163    109.81023    887.58574 
    1800    45.541827   0.25697893   0.99282657   0.19902163        0.005    4.2790968  0.011191291    110.50772    886.79074 
    1900    46.704753   0.25519427    1.0112608   0.19902163        0.005    4.0295074  0.011778729     112.4082    885.19425 
    2000    47.847274   0.25569169    1.0277266   0.19902163        0.005    3.7932872  0.012268883    112.01996    883.81952 
    2100    48.999668   0.25614064    1.0448951   0.19902163        0.005    3.4108151  0.010798866    108.37407    883.89071 
    2200    50.145921   0.25742378    1.0620814   0.19902163        0.005    4.1446204   0.01124617    112.25336    882.45407 
    2300    51.284073   0.25677722    1.0792633   0.19902163        0.005    3.4843053  0.012192509    112.10511    881.11489 
    2400    52.427346    0.2570966    1.0954177   0.19902163        0.005    3.5314273  0.011954381    110.68287    880.27909 
    2500    53.548152   0.25824311    1.1119452   0.19902163        0.005    4.3453949  0.010453211    111.05697     879.3192 
    2600    54.570083    0.2583844    1.1268392   0.19902163        0.005    3.5980391 0.0095480009    112.65953    877.88404 
    2700    55.682573   0.25822236    1.1440277   0.19902163        0.005    4.1034812  0.011192784    109.48861    877.41583 
    2800    56.744731   0.25836708    1.1603666   0.19902163        0.005    3.9645343  0.011580372    111.49379    876.34562 
    2900    57.903302   0.25983068    1.1794395   0.19902163        0.005    3.7826886  0.010611486    111.49874    875.28599 
    3000    59.038602   0.26019173    1.1961789   0.19902163        0.005    4.3693792  0.010891775     106.8133    875.50933 
    3100     60.12386   0.25947547    1.2118339   0.19902163        0.005    4.3181304  0.010559098    111.13792    874.51909 
    3200    61.238774    0.2602975    1.2282827   0.19902163        0.005    3.8979916 0.0097708702    110.90139    873.59256 
    3300    62.319523   0.26079902    1.2434973   0.19902163        0.005    3.5494942   0.01148276    111.80204    872.45468 
    3400    63.460676   0.25920743    1.2606708   0.19902163        0.005     3.446972  0.011343932    109.47841    871.87049 
    3500    64.586281   0.25923625      1.27761   0.19902163        0.005    3.9084973  0.010975874    110.08597    871.12847 
    3600    65.689625   0.25927891    1.2935351   0.19902163        0.005     3.973657 0.0097417974    111.81292    870.00157 
    3700    66.782695   0.26026596    1.3098288   0.19902163        0.005    3.6748263  0.011743865    111.87597    868.87409 
    3800    67.939777   0.26083438    1.3267739   0.19902163        0.005    3.8074349  0.011754929    110.75278     867.9884 
    3900    69.056152   0.26070728    1.3438231   0.19902163        0.005    3.6952079  0.011756812    108.80657    867.49978 
    4000    70.226568   0.26018485    1.3611429   0.19902163        0.005    3.8860011  0.010707849    109.67341     866.8153 
    4100    71.352722   0.25965326    1.3787261   0.19902163        0.005    3.6342742  0.011445676    111.17931    865.83086 
    4200    72.431733   0.26159131    1.3962296   0.19902163        0.005    4.0753935  0.010041105    111.29041    864.82998 
    4300     73.45547   0.26192933    1.4121186   0.19902163        0.005    3.7120682  0.011050377    110.72114    863.93669 
    4400    74.562958   0.26147091    1.4301106   0.19902163        0.005    3.7116475  0.010666899    111.02301    862.98959 
    4500     75.63004   0.26245882    1.4472199   0.19902163        0.005    3.8075812  0.010449806    110.69441    862.10129 
    4600    76.671986   0.26189885    1.4648472   0.19902163        0.005    4.2340448  0.010073685    101.23425    862.96314 
    4700    77.749254   0.26092705    1.4822272   0.19902163        0.005     4.508772   0.01045735    110.20595    862.11572 
    4800    78.848855   0.26168103    1.5000795   0.19902163        0.005    3.7114855    0.0113286    109.18677    861.43376 
    4900    79.960092    0.2623839    1.5182738   0.19902163        0.005    3.7417165   0.01144324    111.12161    860.43279 
    5000     81.06597   0.26208138    1.5358738   0.19902163        0.005     4.912354 0.0099839187    110.30977    859.56169 
    5100    82.155609   0.26226392    1.5553075   0.19902163        0.005    3.6266129  0.011351374    110.67787     858.6331 
    5200    83.254534   0.26227274    1.5751863   0.19902163        0.005     3.845984  0.011014883    111.83943    857.53438 
    5300     84.36012   0.26161508    1.5932504   0.19902163        0.005    3.5701184  0.011063673    110.21748     856.6785 
    5400    85.451791   0.26219984     1.610004   0.19902163        0.005    4.2441362 0.0098767431    110.62804    855.76173 
    5500    86.556373   0.26094487    1.6275715   0.19902163        0.005     4.025794  0.011648337    110.31697    854.88921 
    5600    87.641477   0.26192846    1.6457839   0.19902163        0.005    3.6270412  0.010764848    109.82277    854.08426 
    5700    88.731657   0.26212691    1.6638583   0.19902163        0.005     3.481235  0.010186418    100.56385    854.66254 
    5800    89.820738   0.26139245    1.6827386   0.19902163        0.005    3.9379742  0.011253095     101.4208    855.05014 
    5900    90.936819   0.26178509    1.7013648   0.19902163        0.005    3.9190985  0.011950067    101.16625    855.43074 
    6000    92.058192   0.26171717     1.720437   0.19902163        0.005    3.9560382  0.010800225    106.33332    855.01319 
    6100    93.160085   0.26257516    1.7396671   0.19902163        0.005     3.619776  0.010490965       108.86    854.24249 
    6200    94.252118   0.26243149    1.7585716   0.19902163        0.005    3.4756128  0.011263797      112.328    853.03794 
    6300    95.403406   0.26210284    1.7795125   0.19902163        0.005    3.6825093  0.011415721      110.601    852.05012 
    6400    96.440989   0.26257375    1.7979344   0.19902163        0.005    3.7496242  0.010763569     112.8928    850.79648 
    6500    97.523515    0.2637553    1.8166003   0.19902163        0.005    3.7986848  0.010528352    110.01632     849.8873 
    6600    98.623657   0.26209562    1.8364607   0.19902163        0.005     3.553596  0.010567161     112.5561    848.68787 
    6700    99.691836   0.26236076    1.8556405   0.19902163        0.005    3.8561228  0.011497891    112.31916    847.52383 
    6800     100.7594   0.26337507    1.8741287   0.19902163        0.005    4.0394106  0.010448663    112.34175    846.36539 
    6900    101.81427   0.26187754    1.8929607   0.19902163        0.005     3.629022  0.010732876    110.37163     845.4291 
    7000     102.9201   0.26174796      1.91336   0.19902163        0.005     4.125261  0.011536277    109.17973     844.6251 
    7100    104.01046    0.2613313    1.9336753   0.19902163        0.005     3.588131  0.010957414    112.50541    843.46367 
    7200    105.05536   0.26316456    1.9511168   0.19902163        0.005    4.1901311  0.010283597    111.15583    842.44892 
    7300    106.14729   0.26177243    1.9703678   0.19902163        0.005    3.3599466  0.011444928    110.22356    841.53394 
    7400    107.24463   0.26157741     1.989552   0.19902163        0.005    3.7390653  0.011298314    113.64297    840.27758 
    7500    108.32066   0.26313878    2.0084219   0.19902163        0.005    4.0455878  0.010944554    111.29587    839.26012 
    7600    109.38943   0.26316266    2.0287981   0.19902163        0.005    3.9133455   0.01132398    111.90776    838.18606 
    7700    110.46299   0.26293255    2.0484575   0.19902163        0.005    4.3023327  0.010381277    110.81595    837.22223 
    7800    111.50567   0.26153255    2.0667775   0.19902163        0.005    4.6349131  0.010361463    110.26868    836.31291 
    7900    112.51287   0.26201752    2.0835291   0.19902163        0.005    4.2635197  0.010901184    112.02561    835.23784 
    8000    113.55825   0.26336723    2.1016995   0.19902163        0.005    4.2775747  0.010806514     107.9396    834.55593 
    8100    114.60366   0.26290981    2.1209333   0.19902163        0.005    3.7876366  0.010939419    109.82783    833.68727 
    8200     115.6813   0.26216532    2.1400543   0.19902163        0.005    4.1712018  0.010396755    110.13896    832.78878 
    8300    116.79884   0.26328341    2.1599152   0.19902163        0.005    4.0604725 0.0092680796    111.39492    831.77698 
    8400    117.90153    0.2631733    2.1806127   0.19902163        0.005    3.8554054  0.011133403    110.39196    830.85683 
    8500    119.00014    0.2633874    2.2000558   0.19902163        0.005    3.6737655  0.010256515     112.5452    829.75045 
    8600    120.09142   0.26216385    2.2198237   0.19902163        0.005    3.6923544  0.010616899     110.6666    828.80943 
    8700    121.18351   0.26312384    2.2399821   0.19902163        0.005    3.7228249  0.010739792    110.91515    827.84804 
    8800    122.22976   0.26305556    2.2589817   0.19902163        0.005     4.300825  0.010056391    109.75093    826.98711 
    8900    123.28101   0.26367809     2.277964   0.19902163        0.005    4.4431927  0.010827722      111.269     825.9978 
    9000     124.3532   0.26248521     2.297556   0.19902163        0.005    3.7408656  0.010308418    109.88178    825.12525 
    9100    125.40023   0.26407686    2.3169599   0.19902163        0.005    3.6266684  0.010622858    111.12149    824.15045 
    9200    126.45687   0.26246036    2.3366834   0.19902163        0.005    3.8026429  0.010725359     111.8777    823.11722 
    9300    127.52517   0.26323333    2.3555626   0.19902163        0.005    4.4103025  0.010927048    112.83753    822.01285 
    9400    128.61448   0.26199009      2.37536   0.19902163        0.005    4.2544548 0.0094039764     109.3103    821.18876 
    9500    129.68055   0.26255202    2.3951841   0.19902163        0.005    3.6932074  0.011001829    111.12641    820.22032 
    9600    130.73589   0.26366639    2.4137519   0.19902163        0.005     3.803713  0.011665402    109.37292    819.38917 
    9700    131.84751   0.26406032    2.4335123   0.19902163        0.005    4.3848218  0.010831017    112.04659     818.3532 
    9800    132.91615   0.26400007    2.4527003   0.19902163        0.005    3.8940417  0.011805807    109.14813    817.53829 
    9900    134.05793   0.26397518    2.4733595   0.19902163        0.005    4.2432208  0.011504663    110.79792    816.59719 
   10000    135.18206   0.26337952    2.4931219   0.19902163        0.005    4.0290249  0.010941743    109.25964    815.77121 
   10100    136.29755   0.26334806    2.5143495   0.19902163        0.005    4.1822971  0.011443329    109.43819    814.93019 
   10200    137.33585   0.26426827    2.5339125   0.19902163        0.005    3.8196063  0.010455951    111.55607      813.935 
   10300    138.41336   0.26333919    2.5548614   0.19902163        0.005    3.8707197  0.010267259    111.78932    812.92544 
   10400     139.4308   0.26365573    2.5749008   0.19902163        0.005    4.1791089  0.011034707    109.52026    812.07777 
   10500    140.46175   0.26346485    2.5944624   0.19902163        0.005    3.9272799  0.010172024    110.47111    811.16186 
   10600    141.41478   0.26393269    2.6123234   0.19902163        0.005    5.4249119 0.0085157976    111.28137    810.19057 
   10700    142.26662   0.26374085    2.6284864   0.19902163        0.005    5.5123139 0.0083875041    109.85234     809.3182 
   10800     143.1133   0.26428916    2.6443212   0.19902163        0.005    5.5292392 0.0085030621    110.37491    808.40952 
   10900    144.12173   0.26296989    2.6642986   0.19902163        0.005    4.0987549  0.011498732    110.14549    807.51632 
   11000    145.17275   0.26412499    2.6834746   0.19902163        0.005    3.8333871  0.010394822    108.44081    806.73833 
   11100    146.25032   0.26452676    2.7039485   0.19902163        0.005    4.1022019  0.011095563    110.33911    805.83068 
   11200    147.27907    0.2627783    2.7239293   0.19902163        0.005    4.1899081  0.010268948    111.28955    804.86168 
   11300    148.29156   0.26339462    2.7440205   0.19902163        0.005    3.5330944  0.010232093    110.02844    803.97477 
   11400    149.31395    0.2638428    2.7653418   0.19902163        0.005    3.6403007  0.010152123    112.03654    802.96088 
   11500    150.37193   0.26376758    2.7871252   0.19902163        0.005    3.8255834  0.010949259    110.07395    802.07155 
   11600    151.47162   0.26491568    2.8083776   0.19902163        0.005    4.4010392 0.0099623237    110.49101    801.15578 
   11700    152.56342   0.26471645    2.8304375   0.19902163        0.005    3.4859728  0.010923317    111.39318    800.18486 
   11800    153.66956    0.2641861    2.8529465   0.19902163        0.005     4.256408  0.011013676    112.46155    799.15144 
   11900    154.79252   0.26448466    2.8752188   0.19902163        0.005    4.2622186  0.011162217       111.13    798.19932 
   12000    155.88206   0.26397393    2.8975674   0.19902163        0.005    4.5250276  0.010602447     110.5961    797.27993 
   12100    156.96075   0.26438361    2.9194062   0.19902163        0.005    3.9374111  0.011154878    110.09701    796.39056 
   12200    158.05836   0.26365502    2.9414945   0.19902163        0.005    4.1983111   0.01129016    110.08886    795.50137 
   12300    159.12324   0.26339826     2.962083   0.19902163        0.005    4.3621993  0.010622601    110.38392    794.59456 
   12400    160.12341   0.26455027    2.9808442   0.19902163        0.005    4.4136813 0.0099657417    112.04534    793.59286 
   12500    161.21116    0.2639041    3.0009499   0.19902163        0.005    4.4805567  0.010099044    110.65571    792.67137 
   12600    162.24311   0.26486687    3.0207232   0.19902163        0.005    4.0016682  0.010744784    110.44964    791.76185 
   12700    163.30288   0.26383571    3.0410927   0.19902163        0.005    4.3838217  0.010466023    110.05616    790.87465 
   12800    164.40035   0.26362122    3.0612594   0.19902163        0.005    3.7840883  0.010216036    110.23341    789.97716 
   12900    165.49483   0.26289227    3.0825219   0.19902163        0.005    3.6202932  0.011791819    112.04031    788.98073 
   13000    166.59729   0.26351869     3.103585   0.19902163        0.005    4.0310442   0.01094941    111.95122    787.99066 
   13100    167.73028   0.26361805    3.1249535   0.19902163        0.005    4.0696972  0.011600426    111.53658    787.02411 
   13200    168.83125   0.26365596    3.1441968   0.19902163        0.005    3.4664589  0.011669201     110.6136     786.1078 
   13300    169.95316   0.26435836    3.1640566   0.19902163        0.005    3.3014138  0.011822348    111.06297    785.16783 
   13400    171.03481   0.26518348    3.1823037   0.19902163        0.005     3.404853   0.01086978    111.90928    784.18444 
   13500    172.03064   0.26337081    3.1997339   0.19902163        0.005    3.7169752  0.010330457    111.03709    783.24736 
   13600    173.07188   0.26355476    3.2184346   0.19902163        0.005    3.9596993  0.011289947     110.8731    782.31929 
   13700    174.19333   0.26432918     3.238246   0.19902163        0.005    4.0384476  0.010750949    109.39363    781.46842 
   13800    175.31374   0.26396645    3.2576851   0.19902163        0.005     3.930821  0.011176931    110.90506    780.53883 
   13900    176.41355     0.263113    3.2781035   0.19902163        0.005    4.1388119  0.010354463    111.56432    779.57663 
   14000    177.50476    0.2638883     3.297303   0.19902163        0.005    4.1074199  0.010804791    110.52362    778.66722 
   14100    178.60894   0.26379565    3.3169916   0.19902163        0.005    3.8757578  0.010877645    111.14605    777.72701 
   14200     179.7213   0.26386855    3.3368165   0.19902163        0.005    3.7351187  0.010859907    109.69605    776.85922 
   14300    180.77148   0.26436853     3.355157   0.19902163        0.005    4.0584127 0.0098173068    109.96561    775.97743 
   14400    181.80507   0.26428103    3.3722025   0.19902163        0.005    4.5065092  0.010618556     111.2721    775.03179 
   14500    182.93035   0.26353178    3.3917849   0.19902163        0.005    3.9668043  0.010084854    110.86806    774.10611 
   14600    184.02553   0.26340114    3.4098701   0.19902163        0.005    3.7516561  0.011320822    111.48034    773.15177 
   14700    185.10274   0.26288691    3.4287854   0.19902163        0.005    4.0625647  0.011198505    110.66073    772.23677 
   14800    186.21086   0.26287654    3.4463256   0.19902163        0.005    4.0097303  0.011392164    110.52924     771.3281 
   14900    187.30119   0.26393486     3.465776   0.19902163        0.005    3.9701337  0.010798828    110.72211    770.41049 
   15000    188.42531   0.26341266    3.4861139   0.19902163        0.005    3.6704059  0.011566567    110.08452    769.52272 
   15100    189.49826   0.26310022    3.5049524   0.19902163        0.005    4.5344232  0.010618529    111.97994    768.54823 
   15200    190.55174   0.26355582    3.5241263   0.19902163        0.005    3.6390007 0.0092719424     109.8755    767.67022 
   15300     191.5592   0.26402445    3.5426543   0.19902163        0.005    4.2052339  0.010177758    110.74699    766.75215 
   15400     192.6046   0.26429192    3.5619721   0.19902163        0.005    4.2171485  0.010540409    112.27403     765.7668 
   15500    193.64548   0.26333155    3.5810309   0.19902163        0.005    3.9872203  0.011248688    110.98679    764.83899 
   15600    194.72726   0.26378315    3.6021908   0.19902163        0.005     3.625297  0.011703196    110.39112    763.93784 
   15700    195.83048    0.2638548     3.624353   0.19902163        0.005    3.6735423  0.010519597    110.92797    763.01308 
   15800    196.90968    0.2639144    3.6458362   0.19902163        0.005    4.7733328  0.010280743    111.70251     762.0553 
   15900    197.98793   0.26435404    3.6673744   0.19902163        0.005    3.9951294  0.010653947    113.24079      761.034 
   16000    198.98938   0.26442996    3.6880402   0.19902163        0.005    3.9158361  0.010792752    109.67247    760.16525 
   16100    200.08273   0.26457828    3.7080846   0.19902163        0.005     3.878802  0.011623877    109.93613    759.28458 
   16200    201.16889   0.26404784    3.7289492   0.19902163        0.005    3.9197713  0.011535272    110.44746    758.38177 
   16300    202.25372   0.26348692    3.7492771   0.19902163        0.005    4.0736034  0.011030434    111.31244     757.4428 
   16400    203.33376     0.263309    3.7700136   0.19902163        0.005    3.7696591  0.010904458    111.14643    756.51116 
   16500    204.39521   0.26406177    3.7907421   0.19902163        0.005    3.9522134    0.0111857     109.3005     755.6568 
   16600    205.49118    0.2649399    3.8122277   0.19902163        0.005    4.2278939  0.011186181    111.36576    754.71647 
   16700     206.5193   0.26465239    3.8324374   0.19902163        0.005    4.0057037  0.011528105     104.6381    754.06463 
   16800    207.60361   0.26460856    3.8552584   0.19902163        0.005    4.2781408  0.010643005    102.10344    753.52665 
   16900    208.67218     0.264024    3.8773415   0.19902163        0.005    4.2689191  0.010824793    103.13402    752.93533 
   17000    209.73875   0.26460521    3.8989251   0.19902163        0.005    4.0597172  0.010551765    101.27527    752.42644 
   17100    210.82268   0.26447284    3.9200063   0.19902163        0.005    4.0110052  0.011528027    111.16101    751.48625 
   17200    211.90518   0.26496656     3.942499   0.19902163        0.005    3.9938284  0.011046111    110.73681    750.56312 
   17300    212.99015   0.26436637    3.9650832   0.19902163        0.005     4.382279  0.009402553    111.52225    749.60982 
   17400     214.0353   0.26439205    3.9877264   0.19902163        0.005    4.0691265  0.010700169    110.23938    748.70671 
   17500    215.13384   0.26503436    4.0109529   0.19902163        0.005    3.7811669  0.011322264    112.68213    747.71084 
   17600    216.21902   0.26453504     4.033525   0.19902163        0.005    4.1021613  0.010271034    111.56455    746.75782 
   17700    217.33268   0.26387839    4.0560774   0.19902163        0.005     4.674457   0.01032119    110.96242    745.82807 
   17800    218.42416   0.26483664    4.0782849   0.19902163        0.005    4.2915625  0.010666394    111.70875    744.87083 
   17900      219.477   0.26401981    4.0998214   0.19902163        0.005    3.5606372  0.010903772    110.01139    743.97763 
   18000    220.56996   0.26434866    4.1222516   0.19902163        0.005    4.2975052  0.011306535    108.71503    743.13363 
   18100    221.67462   0.26404324    4.1440792   0.19902163        0.005      4.23355  0.010246845    113.06871    742.12854 
   18200    222.77516   0.26554889    4.1666896   0.19902163        0.005    3.9986859  0.010770304    113.10401    741.12353 
   18300    223.82154   0.26448338    4.1884024   0.19902163        0.005    3.8315762 0.0096806204    110.51407    740.21234 
   18400    224.93386   0.26507316    4.2118359   0.19902163        0.005    3.6538167  0.010118391    111.25699    739.27443 
   18500    226.02446   0.26519451    4.2345414   0.19902163        0.005      4.05564  0.011194062     110.8204    738.35255 
   18600    227.09543   0.26482021    4.2563856   0.19902163        0.005    4.2092845  0.010179908    112.28031    737.37952 
   18700    228.15378   0.26494332    4.2794019   0.19902163        0.005    4.0409178  0.011066764    111.66459    736.42873 
   18800    229.23243   0.26476137     4.303875   0.19902163        0.005    4.2591775  0.010357854    110.99407    735.50188 
   18900    230.19694   0.26452874    4.3257876   0.19902163        0.005    4.5591795 0.0091545032    109.41481    734.63112 
   19000    231.15335   0.26465436    4.3469342   0.19902163        0.005    4.0625709   0.01015084    110.98497    733.70478 
   19100    232.22895   0.26419993    4.3710209   0.19902163        0.005    4.0995118  0.010273985    110.98767    732.77861 
   19200    233.27914   0.26328243    4.3953109   0.19902163        0.005    3.7070232  0.010504654    111.91654    731.82123 
   19300    234.35368   0.26416728    4.4199885   0.19902163        0.005    3.7403967  0.011025508    111.72423    730.87094 
   19400    235.42222   0.26317715    4.4447965   0.19902163        0.005    4.0339608  0.011296241    111.87433    729.91624 
   19500    236.48324   0.26307547    4.4691928   0.19902163        0.005    4.0075283 0.0095292638      111.501    728.97451 
   19600    237.44295   0.26488194    4.4914341   0.19902163        0.005    3.9216633  0.010462782    111.11593    728.04599 
   19700    238.50444   0.26401841    4.5169583   0.19902163        0.005    3.5469708  0.010298022    111.98057    727.08944 
   19800    239.56434   0.26421776    4.5418351   0.19902163        0.005    4.2150228  0.009737734    111.58883    726.14622 
   19900    240.61379   0.26477445    4.5659789   0.19902163        0.005    4.0338454  0.011057195    111.22023    725.21544 
   20000    241.69894   0.26515768    4.5908941   0.19902163        0.005    3.7545489  0.011149059    109.78166     724.3321 
   20100    242.76507   0.26435384    4.6165765   0.19902163        0.005    3.8174983  0.010873186    109.19593     723.4679 
   20200    243.81169   0.26541436    4.6400163   0.19902163        0.005    3.7872377  0.010562149    111.41664    722.53109 
   20300    244.87993   0.26494868    4.6647287   0.19902163        0.005    4.0989116  0.010263204    110.96515      721.609 
   20400    245.94776   0.26422709    4.6904786   0.19902163        0.005    3.9347875 0.0094217813    111.77505    720.66164 
   20500    246.96492   0.26479236    4.7137822   0.19902163        0.005    4.0233516  0.011179396    111.92442    719.71016 
   20600    248.06984   0.26357215    4.7398981   0.19902163        0.005    3.7531968  0.010939673    111.47687    718.77307 
   20700    249.16182   0.26425663    4.7650858   0.19902163        0.005    4.0588452  0.010003534    111.56533    717.83365 
   20800    250.23979   0.26479063    4.7901965   0.19902163        0.005    4.2865476  0.011079786     111.4088    716.89943 
   20900    251.26838   0.26465977    4.8150895   0.19902163        0.005    3.7680982  0.010466002    110.64383    715.98905 
   21000    252.32078   0.26389154    4.8397653   0.19902163        0.005     3.593958  0.010966516    111.46719    715.05361 
   21100    253.38015   0.26351372    4.8640027   0.19902163        0.005    4.6706382  0.010525184    110.81829    714.13819 
   21200    254.42861   0.26541733    4.8870054   0.19902163        0.005    3.9803409  0.010610792    112.79756    713.16403 
   21300     255.5244   0.26445394    4.9114127   0.19902163        0.005    3.8642624   0.01106744    111.37632    712.23249 
   21400     256.5836    0.2645141    4.9350955   0.19902163        0.005    3.8993156  0.010412819    109.92019    711.34496 
   21500    257.62743   0.26447912    4.9586514   0.19902163        0.005    4.2084104  0.010541986    110.33473    710.44474 
   21600    258.65583   0.26443779    4.9815608   0.19902163        0.005    4.2339138 0.0098420991    111.73869    709.50313 
   21700    259.69508   0.26571554    5.0053262   0.19902163        0.005    4.0436963  0.010761096    111.71027    708.56277 
   21800    260.75659   0.26392985    5.0299362   0.19902163        0.005    4.3082723   0.01057937    110.18143    707.66737 
   21900    261.84312   0.26326739    5.0540802   0.19902163        0.005    4.3969988  0.010884449     109.8452    706.78178 
   22000    262.91029   0.26438346    5.0781667   0.19902163        0.005    4.3350884  0.010883974    111.68927    705.84267 
   22100    263.96916   0.26439867     5.102199   0.19902163        0.005    4.1577168  0.010439023    110.02965    704.95156 
   22200    265.02549   0.26444164    5.1267317   0.19902163        0.005    3.9723065  0.010735106    112.68925    703.98512 
   22300    266.09989   0.26410821    5.1525431   0.19902163        0.005    3.9284705  0.010766731     112.4217    703.02675 
   22400    267.16775    0.2646666    5.1777688   0.19902163        0.005    4.0369816  0.010307067    111.64155    702.09052 
   22500    268.20061   0.26422403    5.2015784   0.19902163        0.005     5.087471 0.0095908469    112.02409    701.14412 
   22600     269.1896   0.26467754    5.2247053   0.19902163        0.005    4.3226273 0.0096983943    111.16708    700.22176 
   22700    270.24708   0.26432891    5.2493343   0.19902163        0.005    3.9474993  0.010793676    112.65916    699.25903 
   22800    271.26249   0.26526741    5.2727297   0.19902163        0.005    4.6979189   0.01049149    111.15645     698.3376 
   22900    272.34311   0.26639674    5.2972903   0.19902163        0.005    4.1380364  0.011430928    111.07149    697.41867 
   23000    273.37036   0.26474945    5.3208539   0.19902163        0.005    3.7567372  0.011499804     108.5735    696.56925 
   23100    274.39666    0.2648335    5.3439432   0.19902163        0.005    4.1888811 0.0097435094    111.54254    695.63759 
   23200    275.36041   0.26516354    5.3662161   0.19902163        0.005     3.935678   0.01081633    110.76895    694.72697 
   23300    276.35245   0.26503184    5.3883202   0.19902163        0.005    3.9105911  0.010529959    108.56066    693.87686 
   23400     277.4073   0.26548665    5.4120592   0.19902163        0.005     3.908156  0.010801454    106.26993    693.09114 
   23500    278.46916   0.26519781    5.4359872   0.19902163        0.005    3.8482051   0.01111307    111.87397    692.15066 
   23600      279.549   0.26386164    5.4600851   0.19902163        0.005    3.8052316  0.011428589    109.86209    691.26356 
   23700    280.62618   0.26377432    5.4843347   0.19902163        0.005    3.8261437  0.010319324    111.91505    690.32252 
   23800    281.65224   0.26341946    5.5078827   0.19902163        0.005    4.1617263  0.010582957    111.33463    689.39678 
   23900    282.68787   0.26357323    5.5315688   0.19902163        0.005    4.1023931  0.010653473     113.0167    688.42872 
   24000    283.72829   0.26432125    5.5549755   0.19902163        0.005    4.7343107  0.010470435     109.8364    687.54247 
   24100    284.76203   0.26396271     5.578304   0.19902163        0.005    4.2409628  0.010974627     111.1934    686.62103 
   24200    285.84051   0.26391495     5.601559   0.19902163        0.005    4.2245637  0.010916597    112.08851    685.67728 
   24300    286.89645   0.26414576    5.6252068   0.19902163        0.005    3.9924487  0.010734209    111.29339    684.75381 
   24400    287.95118   0.26329507    5.6497137   0.19902163        0.005    4.2666711  0.010329871    110.26331    683.85655 
   24500    288.94909   0.26421016    5.6726981   0.19902163        0.005    4.0099376 0.0098573473    98.401848     683.2961 
   24600    289.92199   0.26530635    5.6960156   0.19902163        0.005    3.6993076  0.010800944    111.50847    682.36584 
   24700    291.00204   0.26476334     5.721738   0.19902163        0.005    4.4754639  0.010059868    109.32138    681.49053 
   24800    292.07812   0.26531496    5.7470671   0.19902163        0.005    4.2522346  0.010494267    112.74302    680.53073 
   24900    293.03456   0.26517828    5.7694354   0.19902163        0.005    4.7737102  0.010390397    113.16813    679.56147 
   25000    294.04818   0.26446738    5.7933737   0.19902163        0.005    5.0438044 0.0097345742    110.50271    678.65683 
   25100    295.02651   0.26442392    5.8163023   0.19902163        0.005    4.0735606  0.011039463    112.02373    677.71553 
   25200    296.10807   0.26329225    5.8406797   0.19902163        0.005    4.3851835  0.010562811    110.74702    676.80516 
   25300    297.16748   0.26529689    5.8656479   0.19902163        0.005    3.9239213  0.010611054    109.65971    675.92128 
   25400    298.17984   0.26461075    5.8899646   0.19902163        0.005    3.9082134  0.010506237    113.76096    674.94062 
   25500    299.21624   0.26457577    5.9159978   0.19902163        0.005    4.4744785 0.0097590043    110.71769    674.03135 
   25600    300.27926   0.26470115    5.9412912   0.19902163        0.005    4.4858674  0.010429927    100.66288    673.38432 
   25700     301.3334   0.26392033    5.9670021   0.19902163        0.005    3.8344431  0.010586286    106.81877    672.56908 
   25800    302.40513   0.26388626    5.9923283   0.19902163        0.005    4.0376544  0.011697269    112.89727    671.60795 
   25900    303.49923   0.26342208    6.0172248   0.19902163        0.005    4.1596403  0.010775872    110.00169     670.7141 
   26000    304.57378   0.26358418    6.0429468   0.19902163        0.005    3.7816529  0.011468922    110.38772    669.81109 
   26100      305.659   0.26528596    6.0687025   0.19902163        0.005    3.9176896  0.011065263    109.04921    668.93954 
   26200    306.74524   0.26369672       6.0958   0.19902163        0.005    4.4090076  0.010680696    111.34669    668.01435 
   26300    307.83072   0.26494962    6.1224094   0.19902163        0.005     4.105095  0.011177748    110.87973    667.09996 
   26400    308.90834   0.26370244    6.1484616   0.19902163        0.005    3.9834545  0.010932022    111.10421    666.18059 
   26500    309.98828   0.26520526    6.1740619   0.19902163        0.005     4.340552 0.0099723335    110.63989    665.27183 
   26600    310.99713   0.26473113     6.197946   0.19902163        0.005    4.6192286  0.010188958    109.47315     664.3897 
   26700    312.01085   0.26444775    6.2214988   0.19902163        0.005    4.2399769  0.010600707    111.04794    663.47177 
   26800    313.01864   0.26432287    6.2448594   0.19902163        0.005    4.4479819  0.010726791    110.85344    662.55828 
   26900    314.08106   0.26352375    6.2699205   0.19902163        0.005    4.4223777  0.010564851    109.47724     661.6757 
   27000    315.08115   0.26418589    6.2944503   0.19902163        0.005    3.9354302 0.0092004756    108.28523    660.82007 
   27100    316.02504   0.26400662    6.3167118   0.19902163        0.005    4.3358812 0.0098125517    110.12597    659.92242 
   27200    317.05938   0.26435042    6.3413436   0.19902163        0.005    4.2889628  0.010756535     109.8867    659.02998 
   27300    318.10124   0.26497809    6.3662039   0.19902163        0.005    3.8347306 0.0096632549    109.97086    658.13556 
   27400      319.057   0.26560245    6.3877853   0.19902163        0.005    4.0307064  0.010378943    109.62302    657.24867 
   27500    320.07916   0.26522895    6.4118239   0.19902163        0.005    4.6781363 0.0098905509    111.22235    656.32702 
   27600    321.08368   0.26371929    6.4349564   0.19902163        0.005    4.7098233 0.0099534499    110.94469    655.41144 
   27700    322.08277   0.26412647    6.4583937   0.19902163        0.005    3.7271404  0.010644868     111.0075    654.49463 
   27800    323.14373   0.26424616    6.4833795   0.19902163        0.005    3.9195466  0.010607269    102.97696    653.76038 
   27900    324.22931    0.2638144     6.508044   0.19902163        0.005    4.2885691  0.010593622    102.14775    653.04481 
   28000    325.26162   0.26503157    6.5311229   0.19902163        0.005      4.27372  0.010709147    106.19489    652.23141 
   28100    326.30707   0.26359609     6.555565   0.19902163        0.005    3.5412723  0.010781682    110.43085    651.32468 
   28200    327.34944   0.26605448     6.579595   0.19902163        0.005    4.0445919 0.0094318166    109.23674    650.44317 
   28300    328.33144    0.2652117    6.6024831   0.19902163        0.005    5.3331016 0.0089900863    108.33625    649.58069 
   28400    329.32324   0.26522159    6.6251565   0.19902163        0.005    4.2925359  0.010303815    111.89615    648.64375 
   28500    330.35022   0.26492057    6.6490935   0.19902163        0.005    4.7043129 0.0090806579    111.93344    647.70636 
   28600    331.37056     0.265151    6.6734832   0.19902163        0.005    4.4944312 0.0095597763    110.83033    646.79148 
   28700    332.41925   0.26473662    6.6973759   0.19902163        0.005    4.5660183  0.010572314    113.12564    645.83122 
   28800    333.48694   0.26538017    6.7213831   0.19902163        0.005    4.2853011  0.010542156    109.45852    644.94469 
   28900    334.54999   0.26513153    6.7466725   0.19902163        0.005      4.51487  0.010717165    99.823002    644.27493 
   29000    335.62448   0.26365845    6.7721178   0.19902163        0.005    4.0352438 0.0095762867    110.45208    643.36686 
   29100    336.64343   0.26627306    6.7942406   0.19902163        0.005    3.8054939 0.0099408312    109.52015    642.47758 
   29200    337.65543   0.26529017    6.8169515   0.19902163        0.005     4.187942  0.010123593    112.91958    641.52148 
   29300    338.71195   0.26506374    6.8403527   0.19902163        0.005    3.8475102 0.0095679843    113.14383    640.56164 
   29400    339.80325   0.26528175    6.8654006   0.19902163        0.005     3.725711  0.011244736    113.42858    639.59698 
   29500    340.81656   0.26590595    6.8883472   0.19902163        0.005    4.5132732  0.009841365    111.45723    638.67015 
   29600    341.85859   0.26589642    6.9123245   0.19902163        0.005    3.8443004   0.01005111    112.88518    637.71652 
   29700    342.83638   0.26540753    6.9338379   0.19902163        0.005    4.6590913 0.0088848403    109.55794    636.82703 
   29800     343.7354    0.2659291    6.9543195   0.19902163        0.005    5.1695067 0.0083852805    110.79119    635.91346 
   29900     344.5919   0.26551549    6.9743314   0.19902163        0.005    5.5504368  0.008616593    110.32277    635.00894 
   30000    345.43919   0.26559614    6.9946358   0.19902163        0.005    4.4522419  0.010280399    98.432077     634.3599 
   30100    346.49258   0.26539176    7.0195982   0.19902163        0.005    3.8917257  0.010510941    100.16638    633.66758 
   30200     347.5482   0.26490187     7.043841   0.19902163        0.005    4.2890922  0.010262009    102.68575    632.91661 
   30300    348.60793    0.2641526    7.0688583   0.19902163        0.005    4.3859142  0.010666577    110.06913    632.01391 
   30400    349.64973   0.26528307    7.0927894   0.19902163        0.005    4.0103912  0.010239173    109.43865    631.12315 
   30500    350.67164   0.26532319    7.1163029   0.19902163        0.005    3.6469779  0.010247926    110.02117    630.22122 
   30600    351.74506   0.26540119    7.1416631   0.19902163        0.005    4.0083859  0.010933659    110.38124    629.31252 
   30700    352.84055    0.2644001    7.1669449   0.19902163        0.005    3.9694185  0.011150976    110.50481    628.40154 
   30800    353.87092   0.26508843    7.1896174   0.19902163        0.005    4.1997854  0.011317944    110.61016    627.48868 
   30900    354.93426   0.26507375    7.2139824   0.19902163        0.005    4.5977534  0.010864855    110.29811    626.58159 
   31000    355.98636   0.26550401    7.2386313   0.19902163        0.005    4.2250288 0.0099876049    106.27071    625.75097 
   31100    357.04323   0.26482249    7.2631317   0.19902163        0.005    4.3013638  0.010320812    109.60575    624.85622 
   31200     358.0664   0.26505866    7.2871778   0.19902163        0.005    4.6357344  0.010266525    110.76723    623.94025 
   31300    359.12004   0.26561214     7.310689   0.19902163        0.005    4.1595081  0.010950171    111.48858    623.01155 
   31400    360.16001   0.26551317      7.33465   0.19902163        0.005    3.9937866   0.01075857    110.56773    622.09938 
   31500    361.24693   0.26592646    7.3599163   0.19902163        0.005    3.9460411  0.010726244    109.98704    621.19763 
   31600    362.29727   0.26578509    7.3839597   0.19902163        0.005    4.1717788  0.010092755    111.99161    620.26061 
   31700    363.32347   0.26603592    7.4073243   0.19902163        0.005    4.2223215  0.010710677    110.16334     619.3558 
   31800    364.37917   0.26567744    7.4318729   0.19902163        0.005    4.2951461  0.010386933    111.33575    618.43047 
   31900    365.37029   0.26511994    7.4538079   0.19902163        0.005    4.6018662  0.009929005     109.1079    617.54446 
   32000    366.44518   0.26469314    7.4790779   0.19902163        0.005    4.0337909  0.010401947    110.48796    616.63393 
   32100    367.47361   0.26568245    7.5034622   0.19902163        0.005    4.2676234  0.010548515    105.43552    615.81518 
   32200    368.50925   0.26488238    7.5271941   0.19902163        0.005    4.0006143  0.010403053    102.12345    615.06039 
   32300    369.57295   0.26533474    7.5517944   0.19902163        0.005    3.7671805  0.010599526    99.820531    614.35157 
   32400    370.63204   0.26513656    7.5749697   0.19902163        0.005    4.2269839  0.010135824    104.57045    613.54599 
   32500    371.68599   0.26468773    7.5991345   0.19902163        0.005    3.8940361   0.01122061    110.28848    612.63651 
   32600    372.74929   0.26493608    7.6232804   0.19902163        0.005    3.8978667  0.010945474    111.14779    611.71255 
   32700     373.7207   0.26592102     7.644274   0.19902163        0.005     4.993692 0.0095903821    112.50164    610.76646 
   32800    374.74679   0.26505529    7.6677236   0.19902163        0.005    4.3371299  0.010056406    111.78345    609.83242 
   32900     375.7896   0.26469547    7.6906368   0.19902163        0.005    4.2802953 0.0090987228    112.01517    608.89484 
   33000    376.82137   0.26479735     7.712902   0.19902163        0.005    3.8762022 0.0096025272    108.26016     608.0204 
   33100    377.87327   0.26488102    7.7358951   0.19902163        0.005    4.9613792 0.0098415755    109.37233    607.12668 
   33200    378.87285    0.2641913    7.7589862   0.19902163        0.005    4.4573253  0.010505192    110.63855    606.21179 
   33300    379.96484   0.26536468    7.7835473   0.19902163        0.005     4.027449  0.010712581    112.24392    605.27106 
   33400     381.0155   0.26392617    7.8076843   0.19902163        0.005    4.1347467 0.0091724643    111.15978    604.34796 
   33500    382.04934   0.26481173    7.8313116   0.19902163        0.005    4.1258087  0.010911896    111.03092    603.42708 
   33600    383.09699   0.26476534    7.8554136   0.19902163        0.005    4.5333162  0.010856713     110.7096    602.51148 
   33700    384.13067   0.26433353    7.8795041   0.19902163        0.005    4.3397406  0.010502215    111.10851    601.58957 
   33800    385.21353   0.26411172    7.9047727   0.19902163        0.005    4.0685275  0.010597317    112.05336    600.65293 
   33900    386.26251   0.26528852    7.9290424   0.19902163        0.005    3.9683021  0.010684893    114.34126    599.68173 
   34000    387.24423   0.26484483    7.9509939   0.19902163        0.005     4.112135 0.0089942659    110.01837     598.7778 
   34100    388.16837   0.26508728    7.9728124   0.19902163        0.005    3.8116188 0.0096047922    108.32721    597.90127 
   34200    389.25374   0.26469857     7.997169   0.19902163        0.005    3.7964273  0.011051959    110.36117    596.99173 
   34300    390.28147   0.26400067    8.0199322   0.19902163        0.005     4.476918 0.0097513987    109.54269    596.09519 
   34400    391.36865   0.26475598    8.0440381   0.19902163        0.005    3.8433691  0.011202379    110.24604    595.18744 
   34500    392.44597   0.26579116    8.0682078   0.19902163        0.005    4.3156415  0.010385673    109.11528    594.29754 
   34600    393.43742   0.26526457    8.0917125   0.19902163        0.005    4.3722958 0.0099147843    110.15168    593.39119 
   34700    394.48353   0.26484246    8.1161823   0.19902163        0.005    4.0082842  0.011033562    111.40424    592.46561 
   34800    395.52571   0.26535261    8.1394641   0.19902163        0.005    4.0414283   0.01028122     111.2732    591.54219 
   34900    396.55947    0.2647116    8.1630519   0.19902163        0.005    4.4349624 0.0094305151    110.58339    590.62936 
   35000    397.58846   0.26454996    8.1839931   0.19902163        0.005    4.1910661 0.0095544481    109.94956    589.72626 
   35100    398.65133   0.26553806    8.2071595   0.19902163        0.005    4.2648724 0.0099510099    110.76269    588.81078 
   35200    399.64759    0.2645036    8.2283339   0.19902163        0.005    4.2146004 0.0097624993    111.21466    587.88862 
   35300    400.61807   0.26566123    8.2479623   0.19902163        0.005      3.77673 0.0092711236    109.68196    586.98961 
   35400    401.62248   0.26553931    8.2693853   0.19902163        0.005    4.1581295  0.010498884    111.18067    586.06811 
   35500    402.69353   0.26540695    8.2921902   0.19902163        0.005    3.9381849  0.011307554    108.77996     585.1828 
   35600    403.72212   0.26438685    8.3134227   0.19902163        0.005    4.1365675  0.010335665    111.25177    584.26035 
   35700    404.81109   0.26569546    8.3367376   0.19902163        0.005     4.036702  0.011270513    111.69492     583.3316 
   35800    405.92166    0.2649394    8.3603929   0.19902163        0.005    4.0545237  0.010856493    111.17831    582.41051 
   35900    406.99736   0.26548611     8.382063   0.19902163        0.005    3.9510558  0.011042055    110.85406    581.49423 
   36000    407.99946   0.26463099    8.4023256   0.19902163        0.005    4.1971251 0.0096587904    109.67568    580.59526 
   36100    409.02942   0.26472115    8.4227838   0.19902163        0.005    3.6859329  0.011248576    110.02867    579.69104 
   36200    410.10054   0.26537481    8.4445581   0.19902163        0.005    3.7511471  0.010469943    110.28546    578.78307 
   36300     411.1186   0.26517602    8.4655677   0.19902163        0.005    3.9244653 0.0090004891    110.53411    577.87153 
   36400    412.16822   0.26497606     8.486397   0.19902163        0.005     3.898725  0.010494504     109.4969    576.97499 
   36500    413.18855   0.26375261     8.508594   0.19902163        0.005    3.5694891  0.010554584    106.14503    576.12854 
   36600    414.22397   0.26512412    8.5294041   0.19902163        0.005    3.9324674  0.010514928    110.55503    575.21647 
   36700    415.30033   0.26476542    8.5514884   0.19902163        0.005    3.7934899  0.010138008    110.97352    574.29855 
   36800    416.35067   0.26504777    8.5723258   0.19902163        0.005     4.606774  0.010148812    111.33129    573.37575 
   36900    417.40832   0.26561218    8.5938459   0.19902163        0.005    4.1128948  0.011225347    111.56892    572.44982 
   37000    418.48036    0.2640428    8.6170945   0.19902163        0.005    3.8019869  0.010282148     109.7696    571.54906 
   37100    419.52097   0.26493942     8.638979   0.19902163        0.005    4.4979072 0.0093064452     112.0712    570.61652 
   37200     420.4545   0.26498763    8.6596743   0.19902163        0.005    3.7337943  0.010352088    110.45147    569.70629 
   37300    421.49127   0.26441067    8.6821992   0.19902163        0.005    3.8664593  0.010216204    110.65629    568.79327 
   37400    422.50523   0.26566698    8.7032506   0.19902163        0.005    4.0350768  0.010544601    111.10336    567.87422 
   37500    423.49901   0.26565514    8.7232069   0.19902163        0.005    3.8729559  0.010354374    108.71184    566.98826 
   37600    424.51935   0.26451711    8.7449677   0.19902163        0.005    4.2527539  0.010577673    105.55436    566.14779 
   37700    425.55179   0.26576425    8.7660389   0.19902163        0.005    3.9616813  0.010621466    106.93563    565.28653 
   37800    426.59535    0.2659686    8.7876071   0.19902163        0.005    3.9675526  0.011019572     111.4437    564.36264 
   37900    427.64681   0.26556091    8.8105143   0.19902163        0.005     3.889783  0.010124591     110.4627    563.45194 
   38000     428.7313   0.26529417    8.8344828   0.19902163        0.005    4.2991793  0.010778603    109.68968    562.55168 
   38100    429.78286   0.26592659    8.8576577   0.19902163        0.005    4.8894696  0.010145795     109.3496    561.65597 
   38200    430.81537   0.26629212    8.8786101   0.19902163        0.005    4.0862884  0.010206091    111.16558    560.73598 
   38300    431.83292   0.26578324    8.8999767   0.19902163        0.005    4.0847066  0.010618218    110.17984    559.82907 
   38400    432.87262   0.26479246    8.9219276   0.19902163        0.005     3.896742  0.011371689    109.72566    558.92819 
   38500    433.90533   0.26504069    8.9443468   0.19902163        0.005    4.4166217  0.010866507    110.03774    558.02312 
   38600    434.98362   0.26523537    8.9682725   0.19902163        0.005    4.5361478  0.010423919    110.25871    557.11513 
   38700    436.03991   0.26632511    8.9920967   0.19902163        0.005    3.8187468  0.010128927    111.90651      556.186 
   38800    437.09451   0.26674345    9.0152669   0.19902163        0.005    4.1883475 0.0097440213    108.85622    555.29654 
   38900    438.13339   0.26591811    9.0393909   0.19902163        0.005    3.8854134  0.010835974    111.55013    554.37209 
   39000    439.16517    0.2654922    9.0632816   0.19902163        0.005    4.6895391   0.01059579    110.44926    553.46176 
   39100    440.23714   0.26560833    9.0881415   0.19902163        0.005    4.3616907  0.010848049    109.80408    552.55974 
   39200    441.33371   0.26666416    9.1124413   0.19902163        0.005    4.0943212 0.0097131246    110.65498    551.64681 
   39300    442.37262   0.26518395    9.1360129   0.19902163        0.005    4.0411502  0.010019919    110.90667    550.73077 
   39400    443.41453   0.26413043    9.1600539   0.19902163        0.005    4.2750471 0.0096982489    112.59967    549.79394 
   39500     444.4568   0.26445705     9.183706   0.19902163        0.005    3.8332566 0.0098451314    109.44319    548.89659 
   39600    445.53514   0.26446063    9.2079366   0.19902163        0.005    4.4082036   0.01012564    113.22104    547.95266 
   39700    446.57154   0.26476838    9.2316315   0.19902163        0.005    4.1029153  0.010430539    111.18488     547.0336 
   39800    447.60819    0.2647024    9.2544065   0.19902163        0.005    3.7358591  0.010786339    108.64274    546.14647 
   39900    448.63877   0.26492968    9.2765689   0.19902163        0.005    4.1695471 0.0098773671    104.02981    545.32065 
   40000    449.61399   0.26630831    9.2979242   0.19902163        0.005    5.2550068 0.0092488732    108.90517    544.42961 
   40100    450.52888   0.26489699    9.3188195   0.19902163        0.005    4.8721902  0.010214277    109.74829    543.52789 
   40200    451.52444    0.2661354    9.3402847   0.19902163        0.005    4.6915182 0.0093315826    112.75102    542.59003 
   40300      452.517   0.26650793    9.3633309   0.19902163        0.005    4.4468799  0.010504669    113.19721    541.64725 
   40400    453.56358   0.26575704    9.3873502   0.19902163        0.005    3.9489061  0.010634721    113.22003    540.70449 
   40500    454.63619   0.26584652    9.4125959   0.19902163        0.005     4.421353  0.011285866     112.9669    539.76494 
   40600     455.6818   0.26454472    9.4360796   0.19902163        0.005    3.7008924  0.010651954    112.42043    538.83195 
   40700    456.75958   0.26493916    9.4599184   0.19902163        0.005    3.7420739  0.011051153     111.7125    537.90738 
   40800    457.79479   0.26563248    9.4836725   0.19902163        0.005    3.9847902  0.010811461    111.31965    536.98755 
   40900    458.86572   0.26639048     9.507464   0.19902163        0.005    3.8181761  0.010663572    110.82187    536.07364 
   41000     459.8942   0.26560174    9.5315484   0.19902163        0.005    3.9096173  0.010397101    109.74082    535.17259 
   41100     460.9634   0.26609826    9.5556521   0.19902163        0.005    3.9753237   0.01053419    109.87536    534.26989 
   41200    462.00612    0.2659502    9.5799144   0.19902163        0.005    3.7004937  0.011281939     110.3653    533.36139 
   41300    463.06185   0.26553931    9.6041629   0.19902163        0.005    3.8415292   0.01073293    113.02958    532.42254 
   41400    464.15036   0.26564431    9.6287088   0.19902163        0.005    4.3602696  0.010697331    113.43091    531.47952 
   41500    465.20806   0.26548923      9.65344   0.19902163        0.005    3.9576279  0.010649148    110.60456    530.56856 
   41600     466.2719    0.2656317    9.6777968   0.19902163        0.005    4.1042279  0.011227751    110.57248    529.65799 
   41700    467.27316   0.26609825    9.7006629   0.19902163        0.005    4.0300207  0.010066349    110.82348     528.7446 
   41800    468.24542   0.26586602    9.7228087   0.19902163        0.005    4.3624539 0.0092706407    110.27961    527.83745 
   41900    469.24833   0.26610884    9.7435684   0.19902163        0.005    4.0607519   0.01083558    112.81103    526.90209 
   42000    470.29098   0.26556348     9.766494   0.19902163        0.005    4.8683839   0.01015711    106.67497    526.03737 
   42100    471.37506   0.26489792     9.791228   0.19902163        0.005     4.214792  0.010163909    102.00731     525.2313 
   42200    472.37674   0.26474165    9.8140169   0.19902163        0.005    3.8693057  0.010993099    111.88298    524.30589 
   42300    473.41118   0.26557945    9.8366579   0.19902163        0.005    4.1222238  0.010635522    111.09112    523.38932 
   42400    474.44561   0.26529108    9.8601035   0.19902163        0.005    4.3412322  0.010654184     111.4432    522.46896 
   42500    475.45674   0.26652602    9.8828694   0.19902163        0.005    3.6177066  0.010349412     112.0845    521.54176 
   42600    476.45782   0.26548901    9.9056596   0.19902163        0.005    4.2032379  0.010937965    109.64517    520.64147 
   42700    477.50257   0.26505257    9.9295703   0.19902163        0.005    4.2565999 0.0099831714    100.47736     519.8528 
   42800    478.52476   0.26502546    9.9524003   0.19902163        0.005    3.8304476  0.010697829    100.62822    519.06117 
   42900    479.55748    0.2665165    9.9765282   0.19902163        0.005    3.9652901  0.010273614    111.28681    518.14192 
   43000    480.60754   0.26597432    10.000668   0.19902163        0.005    4.2125528  0.010462328     110.6295    517.22983 
   43100    481.67061   0.26498254    10.024879   0.19902163        0.005    4.0388638  0.011020211    109.55605    516.32948 
   43200     482.7422   0.26531038      10.0496   0.19902163        0.005    4.4260753  0.010479562    111.86732    515.40427 
   43300    483.76692   0.26586166    10.072658   0.19902163        0.005    4.1173744  0.011033797    111.44086    514.48369 
   43400    484.83622   0.26593275    10.096458   0.19902163        0.005    4.1231379  0.010683232    112.11704    513.55616 
   43500    485.90174   0.26567266    10.120552   0.19902163        0.005    4.4512533  0.010789755    109.02545    512.66164 
   43600    486.96559   0.26625993    10.144623   0.19902163        0.005    4.0649633  0.011049791    112.56649     511.7297 
   43700    488.04859   0.26711732    10.169302   0.19902163        0.005      4.29983  0.010307905    109.98666    510.82479 
   43800    489.11562   0.26557121    10.194032   0.19902163        0.005    4.1204784  0.011078737    112.53457    509.89346 
   43900    490.18237    0.2658249    10.218016   0.19902163        0.005    4.1357962  0.010134245    111.32373    508.97467 
   44000    491.26424   0.26501261    10.243628   0.19902163        0.005    4.1434043    0.0107216    109.45938    508.07545 
   44100    492.31445   0.26506708    10.268139   0.19902163        0.005    4.9232758  0.010005984    109.84808    507.17206 
   44200    493.36112   0.26538353    10.292593   0.19902163        0.005     4.495939  0.010480412    106.70422    506.30251 
   44300    494.36807   0.26506768    10.316752   0.19902163        0.005    4.1334574  0.010106051    106.11308    505.43921 
   44400    495.45514   0.26544668    10.342168   0.19902163        0.005    3.9191342  0.010611792    112.40187    504.50953 
   44500    496.49922   0.26489367    10.365458   0.19902163        0.005    3.8050192  0.010533824    111.22554    503.59177 
   44600    497.58651   0.26469309    10.388936   0.19902163        0.005    3.7292668  0.011098279    111.85819    502.66777 
   44700    498.65273   0.26484242    10.414439   0.19902163        0.005    4.1156129  0.010694823    111.65053    501.74597 
   44800    499.65355   0.26545818    10.436714   0.19902163        0.005    4.2322605 0.0093762143    111.92717    500.82155 
   44900    500.65845   0.26477356    10.459285   0.19902163        0.005     4.381926   0.01112686    111.08444    499.90559 
   45000    501.70054   0.26438485    10.483335   0.19902163        0.005    4.6621571 0.0098366415    109.42908    499.00634 
   45100    502.72542     0.265132    10.507333   0.19902163        0.005    4.2416257  0.010320049    109.10146    498.11037 
   45200    503.78067   0.26556324    10.532182   0.19902163        0.005    4.4591407   0.01071938    111.31297    497.19223 
   45300    504.85009   0.26495695    10.557499   0.19902163        0.005    4.0553179  0.011305617    108.33037    496.30404 
   45400    505.90678   0.26479555      10.5816   0.19902163        0.005    4.1810513  0.011040863    100.03391    495.50778 
   45500     506.9806   0.26490998    10.606057   0.19902163        0.005    3.8568035  0.011399232    105.13811    494.65249 
   45600    508.02563   0.26507657    10.628393   0.19902163        0.005    4.3405564 0.0096099609    112.19063    493.72545 
   45700     509.0129   0.26428552    10.650669   0.19902163        0.005    4.5151162  0.010394674    111.57227    492.80443 
   45800    510.01836   0.26508819    10.673482   0.19902163        0.005    4.1561159 0.0095338579    108.40813    491.91448 
   45900    511.01952   0.26539521    10.696954   0.19902163        0.005    3.9363354 0.0092703088    107.69504    491.03159 
   46000    512.09457   0.26543464    10.721659   0.19902163        0.005    4.4481234  0.010329936     109.9314    490.12633 
   46100    513.17429   0.26540086    10.745644   0.19902163        0.005    4.3628072  0.010460023     110.5152    489.21543 
   46200    514.21179   0.26521454    10.768327   0.19902163        0.005    4.7055326  0.010339561    111.29262    488.29719 
   46300    515.21304   0.26485972    10.791849   0.19902163        0.005     4.550128 0.0097989303    110.92797    487.38247 
   46400    516.18773   0.26446671    10.814973   0.19902163        0.005    4.0441327 0.0097726068    111.85419    486.45918 
   46500    517.21128   0.26572731    10.838925   0.19902163        0.005    4.3087396  0.010781495    110.10646    485.55234 
   46600    518.25815    0.2660397    10.863081   0.19902163        0.005     4.864853   0.01017048    112.26042    484.62552 
   46700    519.28513   0.26469184    10.887359   0.19902163        0.005    4.7340147 0.0091494516    111.10086    483.70948 
   46800    520.20771   0.26481135    10.908685   0.19902163        0.005    4.3610418  0.010075137    109.19652    482.81134 
   46900    521.25967   0.26587384    10.932684   0.19902163        0.005    4.0727576  0.010262691    110.37857    481.90203 
   47000     522.3042   0.26513138    10.956261   0.19902163        0.005    4.7943858  0.010321142    109.80239    480.99809 
   47100    523.32194   0.26454967    10.979556   0.19902163        0.005    4.2990245  0.010137734      111.527     480.0783 
   47200    524.36421   0.26637735    11.003101   0.19902163        0.005    4.5753611  0.010399516      112.354    479.15123 
   47300    525.33657   0.26485783     11.02542   0.19902163        0.005    4.1646465  0.010221457    111.33413     478.2334 
   47400    526.36363   0.26589589    11.047835   0.19902163        0.005    4.6247109 0.0098176413    109.99503    477.32779 
   47500    527.39952   0.26555111    11.071651   0.19902163        0.005    3.7899076   0.01060978    111.43565    476.40917 
   47600    528.43574   0.26609078    11.094941   0.19902163        0.005    4.2877333 0.0097764558    111.73708    475.48798 
   47700    529.48611   0.26492978    11.119997   0.19902163        0.005    4.4355101  0.010411975    112.39139    474.56118 
   47800    530.50626   0.26502925    11.143591   0.19902163        0.005    4.8405445  0.010078969    111.91466    473.63868 
   47900     531.5401   0.26593955    11.167197   0.19902163        0.005    3.9467363  0.010359895    111.38634    472.72091 
   48000     532.5209   0.26519655    11.189569   0.19902163        0.005    4.9764579 0.0099813072    111.08594    471.80585 
   48100    533.52868   0.26573616    11.212585   0.19902163        0.005     4.420936  0.010773312    109.96769    470.90073 
   48200    534.50704   0.26444061    11.234969   0.19902163        0.005    3.9724917 0.0096617072    112.07833    469.97719 
   48300    535.50121   0.26520713    11.257878   0.19902163        0.005    4.5398861  0.010156173    111.18264    469.06147 
   48400    536.54745   0.26492147    11.282568   0.19902163        0.005    4.1012618  0.010132116     110.3648    468.15293 
   48500    537.64588   0.26517063    11.309708   0.19902163        0.005    4.2229201   0.01085106    111.40188    467.23544 
   48600     538.7137   0.26651908    11.336115   0.19902163        0.005    4.0707615  0.010502172    111.94862     466.3134 
   48700    539.76902   0.26695642    11.360477   0.19902163        0.005    3.9888446  0.010697135    112.09492    465.39024 
   48800    540.82718   0.26591163    11.384851   0.19902163        0.005     4.234482  0.010733848    110.82652    464.47792 
   48900    541.84957   0.26538993    11.408915   0.19902163        0.005    3.8831999  0.010999145     113.0199    463.54735 
   49000    542.92208   0.26502196    11.433305   0.19902163        0.005    4.0864249  0.011038631    110.28483     462.6398 
   49100    544.00692   0.26540409     11.45877   0.19902163        0.005    4.3899382 0.0095533178    109.59386    461.73818 
   49200    545.03539   0.26636424    11.482318   0.19902163        0.005    4.6509872 0.0093094888     111.7236    460.81856 
   49300    546.01797   0.26550668    11.504758   0.19902163        0.005    4.2003947  0.010564742    112.23759    459.89482 
   49400    547.08107   0.26527409    11.529809   0.19902163        0.005    3.8842969  0.011416553     113.3395    458.96235 
   49500    548.14237   0.26551819    11.555129   0.19902163        0.005    4.6879758  0.010568826    112.83485     458.0341 
   49600    549.21396   0.26497447    11.580095   0.19902163        0.005    4.3667168  0.009575396    111.68079    457.11532 
   49700    550.20461   0.26535879    11.603256   0.19902163        0.005    3.8084148  0.010175132    108.67134    456.22174 
   49800    551.21171   0.26584185     11.62729   0.19902163        0.005    3.7963259  0.010199266    109.23457    455.32326 
   49900    552.24606   0.26639005    11.651018   0.19902163        0.005    3.7740646  0.010354237     115.4248    454.37543 
   50000    553.27803   0.26540381     11.67437   0.19902163        0.005    3.8928938  0.010381493    111.59008    453.45769 
   50100    554.31356    0.2656215    11.698283   0.19902163        0.005    3.8224705  0.010313394    111.02204    452.54461 
   50200    555.34843   0.26527609    11.722034   0.19902163        0.005      4.10713  0.010670364    112.13904    451.62267 
   50300     556.4026    0.2655019    11.745235   0.19902163        0.005    3.7841992  0.010751965    109.57691    450.72146 
   50400    557.48634   0.26481367    11.770672   0.19902163        0.005    3.6320587  0.010363944    114.20885    449.78378 
   50500    558.52645   0.26553395    11.794022   0.19902163        0.005    4.2832514  0.011264955    111.56728    448.86666 
   50600    559.53596   0.26581677    11.817211   0.19902163        0.005    4.5665752  0.010221252    110.73865    447.95617 
   50700    560.57692   0.26581572    11.841097   0.19902163        0.005    4.1264093  0.010199406    110.46441     447.0479 
   50800    561.60246   0.26587866    11.864558   0.19902163        0.005    3.8683857  0.010758331    111.26886    446.13329 
   50900    562.65128   0.26675895    11.887711   0.19902163        0.005    4.1054453  0.010694268    106.46612    445.25786 
   51000    563.67934    0.2660547    11.910424   0.19902163        0.005     4.046082  0.010470352    108.98565    444.36132 
   51100    564.71636   0.26573321    11.934038   0.19902163        0.005    4.5061359  0.010493602    110.85971    443.44984 
   51200    565.78838   0.26633459    11.957332   0.19902163        0.005    4.0491713  0.011867727    111.61274    442.53261 
   51300    566.87755   0.26423888    11.982621   0.19902163        0.005    3.9772947  0.010242642    109.30563    441.63341 
   51400    567.91879   0.26552442    12.007001   0.19902163        0.005    3.7876751  0.010687302    113.23773    440.70411 
   51500    569.00587    0.2647905    12.031973   0.19902163        0.005    3.6822238  0.010692714    110.28483    439.79726 
   51600    570.11156   0.26543539    12.057529   0.19902163        0.005    4.9835953 0.0099844557    112.56241     438.8732 
   51700    571.16942   0.26642969     12.08259   0.19902163        0.005    3.9635533  0.010645779    112.13793    437.95242 
   51800    572.19156   0.26555563    12.107285   0.19902163        0.005    3.8160985  0.011223989    110.49771    437.04407 
   51900    573.23275   0.26533587     12.13158   0.19902163        0.005    3.7573381  0.010932188    110.45258    436.13608 
   52000     574.3151   0.26552289    12.155973   0.19902163        0.005    3.8746249  0.010218715     101.9287    435.29798 
   52100    575.37461   0.26617152    12.180576   0.19902163        0.005     3.743882 0.0098014531    108.10354    434.40781 
   52200    576.40679   0.26549947    12.205036   0.19902163        0.005     4.607177  0.010530278    110.80149    433.49688 
   52300    577.44839   0.26650675    12.229772   0.19902163        0.005    4.3909162   0.01045995    110.45964    432.58854 
   52400    578.47652   0.26569255    12.254254   0.19902163        0.005    4.7730861 0.0097275675    111.21652    431.67461 
   52500    579.47862   0.26549118    12.278155   0.19902163        0.005    3.8869206  0.010637547    110.49418    430.76605 
   52600      580.533   0.26602464    12.303849   0.19902163        0.005    4.5886126  0.010100884     111.5688    429.84965 
   52700    581.54898    0.2659012    12.328508   0.19902163        0.005    4.2538967 0.0098614102     110.8173    428.93878 
   52800     582.5771    0.2645803    12.353139   0.19902163        0.005    4.4095887  0.010076197    110.93844    428.02707 
   52900    583.62618   0.26591486    12.378195   0.19902163        0.005    4.0547699  0.011516235    111.42594    427.11188 
   53000    584.70667   0.26553424    12.402982   0.19902163        0.005    3.8916744 0.0096069051    109.02117    426.21431 
   53100    585.72802   0.26558518    12.427603   0.19902163        0.005    4.4122615 0.0099027516    99.336926    425.39565 
   53200    586.73469    0.2654394    12.451166   0.19902163        0.005    3.7935073  0.010873627    107.30018    424.51056 
   53300    587.79342   0.26632666    12.477208   0.19902163        0.005    4.6007074  0.010231219    110.80969    423.59944 
   53400    588.85404   0.26643039     12.50309   0.19902163        0.005    4.2721122 0.0098483032     111.4615    422.68374 
   53500    589.90381   0.26522133    12.529082   0.19902163        0.005    3.9715671  0.011242856    110.62264    421.77402 
   53600    590.98214   0.26597474    12.555761   0.19902163        0.005    4.0254453 0.0096272465    111.12888    420.86076 
   53700    592.02973   0.26616343    12.581361   0.19902163        0.005    4.7076476 0.0097847146    111.35946    419.94594 
   53800    593.02611   0.26541875    12.605742   0.19902163        0.005    5.0900367 0.0094847789    108.77604     419.0495 
   53900    594.02929    0.2660542     12.62963   0.19902163        0.005    3.7684708 0.0095154509    111.25823    418.13543 
   54000    595.01868   0.26531451    12.653944   0.19902163        0.005    4.0235408 0.0099346479    108.37452     417.2418 
   54100    596.08108   0.26602482    12.679233   0.19902163        0.005    4.3919353  0.011051572    112.01897    416.32258 
   54200    597.15673   0.26627153    12.705866   0.19902163        0.005     3.927846  0.010609238    100.74288     415.4879 
   54300    598.21458   0.26609605    12.732699   0.19902163        0.005     4.103964  0.010893915    107.80463    414.59791 
   54400     599.2811    0.2667544    12.759638   0.19902163        0.005    4.2751674   0.01085106     111.0075    413.68535 
   54500    600.31628   0.26641645    12.784962   0.19902163        0.005    4.3266486  0.010011278    112.33594    412.76394 
   54600    601.33003   0.26641391    12.809674   0.19902163        0.005    4.1299035  0.010778797    109.97034    411.85856 
   54700     602.3076   0.26675372    12.833904   0.19902163        0.005     4.377039  0.010053648     111.5688    410.94238 
   54800    603.38528   0.26614617    12.860377   0.19902163        0.005     4.046663  0.010095843     110.7945    410.03144 
   54900    604.39154   0.26620527    12.885186   0.19902163        0.005    3.8997332   0.01032995    111.44592     409.1162 
   55000    605.36779   0.26598366    12.908284   0.19902163        0.005    3.9716517  0.011040295    110.78112    408.20543 
   55100    606.42661    0.2661037    12.934509   0.19902163        0.005    4.7017156 0.0093436826     108.5458    407.30983 
   55200    607.43562   0.26541811    12.959017   0.19902163        0.005    4.2779007  0.010061722    110.77609    406.39909 
   55300    608.48292   0.26679366     12.98397   0.19902163        0.005     4.106647  0.010026266    102.74831    405.54539 
   55400    609.54944    0.2662153    13.008934   0.19902163        0.005    4.1422624 0.0094187518    110.46904    404.63649 
   55500    610.58036   0.26581396    13.033988   0.19902163        0.005    4.5193966   0.01028035    110.77717    403.72559 
   55600     611.6252   0.26625189    13.059574   0.19902163        0.005    4.2181616  0.010926017    111.17079    402.81217 
   55700    612.66867   0.26703639     13.08419   0.19902163        0.005    4.0494045  0.010419461    111.97519    401.89366 
   55800    613.66187   0.26582488    13.108327   0.19902163        0.005    4.1586813 0.0095850559    110.08354    400.98739 
   55900    614.66976   0.26661059    13.132293   0.19902163        0.005    4.1466623  0.010729265    110.20303    400.08034 
   56000    615.73807   0.26567954    13.158068   0.19902163        0.005    3.9603185  0.010984864    109.80408    399.17588 
   56100    616.76976   0.26540497    13.183526   0.19902163        0.005    4.3026707  0.010399718    109.19485    398.27538 
   56200    617.81014   0.26495707    13.208893   0.19902163        0.005    4.0536037  0.010145224    110.95209    397.36351 
   56300    618.88916   0.26577184    13.234592   0.19902163        0.005    4.9296612 0.0096829089    112.99283    396.43905 
   56400    619.94412   0.26559489    13.260023   0.19902163        0.005    4.0510794  0.011074853    109.42774    395.53701 
   56500    620.98867   0.26635761    13.285519   0.19902163        0.005    3.9990261  0.010235847    110.20424    394.62998 
   56600    621.98071   0.26634302    13.309522   0.19902163        0.005    4.8066093 0.0093833107     109.9115     393.7248 
   56700    623.01871   0.26511816    13.335153   0.19902163        0.005    4.0350253  0.010897201    110.74517    392.81437 
   56800    624.07291   0.26603663    13.360728   0.19902163        0.005    4.0971259 0.0099759528    110.98841    391.90247 
   56900    625.07422    0.2664685    13.384303   0.19902163        0.005    4.0525932  0.010880821    111.99965    390.98444 
   57000    626.15018   0.26690339    13.410878   0.19902163        0.005    4.7575323 0.0098065231    110.49503    390.07567 
   57100    627.17889   0.26595013    13.434152   0.19902163        0.005    3.8500441  0.010895877    111.91502    389.15829 
   57200    628.21876   0.26613913    13.457425   0.19902163        0.005     3.951228  0.010113121    113.23877    388.23317 
   57300    629.22734   0.26680574    13.480783   0.19902163        0.005    4.7573469 0.0098929814    112.08663    387.31496 
   57400    630.17436   0.26603996    13.502194   0.19902163        0.005     3.870781 0.0095480273    109.57402    386.41203 
   57500    631.13616   0.26616044    13.524278   0.19902163        0.005    4.2289834  0.009853876    110.88111    385.50112 
   57600    632.11393   0.26530474    13.545178   0.19902163        0.005    4.2191695 0.0098745805    109.81541    384.59667 
   57700    633.14385   0.26532151    13.568142   0.19902163        0.005    4.0602477  0.010958176    112.17074    383.67819 
   57800    634.18119   0.26595678    13.590819   0.19902163        0.005    4.5607125  0.010807999    109.70434    382.77444 
   57900    635.20846   0.26598161    13.612496   0.19902163        0.005    3.9395798  0.010961716    111.32461    381.86101 
   58000    636.27946   0.26381876    13.636355   0.19902163        0.005    4.3938051  0.010136258    109.78914    380.95673 
   58100    637.28342   0.26593541    13.657407   0.19902163        0.005    4.6222011  0.010122503    111.20687    380.04405 
   58200    638.32074   0.26590008    13.679889   0.19902163        0.005    4.7745651  0.010079256    111.20614    379.13143 
   58300    639.35812   0.26547969    13.702524   0.19902163        0.005    4.3460815  0.010177129    110.00965    378.22585 
   58400    640.38491   0.26530647    13.725345   0.19902163        0.005    4.3761704  0.010105876     111.9307    377.30914 
   58500     641.4629    0.2648702    13.748996   0.19902163        0.005    4.0562147  0.010915301    112.00354     376.3921 
   58600    642.56859   0.26523575    13.773391   0.19902163        0.005    4.1061781  0.010601259    103.75166     375.5253 
   58700    643.63972   0.26535438    13.796851   0.19902163        0.005    4.9143888  0.010080672     101.7824     374.6713 
   58800    644.67248   0.26484825    13.819312   0.19902163        0.005    4.1253142  0.009100668    102.24897    373.81373 
   58900    645.68893   0.26543494    13.841322   0.19902163        0.005    3.8788703  0.010640607    108.33779    372.91738 
   59000    646.74873   0.26411604    13.864168   0.19902163        0.005    3.4714173 0.0099717196    110.27303    372.00969 
   59100     647.7679   0.26541946    13.884503   0.19902163        0.005    4.7825406 0.0099827799    109.64216    371.10562 
   59200    648.77165   0.26498219    13.906167   0.19902163        0.005    4.0098368  0.010997147    110.48429    370.19672 
   59300    649.83995   0.26480582    13.929094   0.19902163        0.005    4.2866572  0.011145297    111.88361    369.28007 
   59400    650.89836   0.26592103    13.951879   0.19902163        0.005    4.4142577  0.010443657    110.08062     368.3735 
   59500    651.98415   0.26576112    13.974992   0.19902163        0.005    4.3696561  0.010940967    111.89913    367.45688 
   59600    653.04189   0.26650352    13.998933   0.19902163        0.005    4.2066531  0.010510926    110.53131    366.54783 
   59700    654.06397     0.265568    14.020754   0.19902163        0.005    4.4613049  0.010419854    101.60598    365.69244 
   59800     655.1337   0.26622608    14.045122   0.19902163        0.005    4.0862254  0.011141521    109.74335    364.78757 
   59900    656.18351   0.26607833    14.068651   0.19902163        0.005    4.5672072 0.0093332058    112.16321    363.86951 
   60000    657.18708   0.26492032    14.091778   0.19902163        0.005    3.9985579 0.0098714208    110.36126    362.96124 
   60100    658.23433   0.26544848    14.115264   0.19902163        0.005    3.7875987 0.0089220096    111.48274    362.04693 
   60200    659.23708    0.2653185    14.136837   0.19902163        0.005    4.2195619  0.011132979    111.33649    361.13346 
   60300    660.30423   0.26411548     14.15885   0.19902163        0.005    4.2011408  0.010407365    112.15805     360.2157 
   60400    661.36045   0.26397423    14.181966   0.19902163        0.005     3.499873  0.010338427    112.11995    359.29824 
   60500    662.40015    0.2653507    14.205241   0.19902163        0.005    3.6991173  0.011433181    112.19174    358.38048 
   60600    663.41869    0.2652088    14.227123   0.19902163        0.005    4.1002985 0.0095223068    110.36652    357.47239 
   60700    664.35805   0.26537892    14.247548   0.19902163        0.005    3.8478717 0.0092873541    111.02243    356.56085 
   60800     665.2563    0.2664474    14.266591   0.19902163        0.005    3.9946587 0.0093966812    109.84328    355.65557 
   60900    666.20701   0.26636202    14.286152   0.19902163        0.005    4.1070742  0.010108083    111.08579    354.74374 
   61000    667.21867   0.26617764      14.3076   0.19902163        0.005    3.9799357  0.011377004    110.00859    353.83759 
   61100    668.29019    0.2649741    14.331223   0.19902163        0.005    4.1273618  0.010362684     110.3385    352.92969 
   61200    669.34647   0.26698198    14.353724   0.19902163        0.005    4.0925362  0.010251127     109.9614    352.02377 
   61300     670.3798   0.26559325    14.375265   0.19902163        0.005    4.3273052  0.010611629    107.57881    351.13055 
   61400    671.41834   0.26572338    14.397783   0.19902163        0.005    4.1929268  0.010432215    108.19024    350.23392 
   61500    672.46282   0.26673537    14.420191   0.19902163        0.005    3.6463144 0.0098609397    105.91345    349.34963 
   61600    673.51654   0.26648165    14.442094   0.19902163        0.005    3.9691639  0.011099718    114.02678    348.42327 
   61700    674.59432   0.26571172    14.464496   0.19902163        0.005    4.0940415  0.010759716    111.95239    347.50715 
   61800    675.60575   0.26493163     14.48612   0.19902163        0.005     4.319937 0.0098077169    109.95861    346.60112 
   61900    676.61382   0.26689966    14.507456   0.19902163        0.005    3.9926873 0.0098525572    102.16915    345.73776 
   62000    677.62496   0.26552462    14.530063   0.19902163        0.005    4.2470592  0.010691153    109.96155    344.83151 
   62100     678.6922     0.266328      14.5532   0.19902163        0.005    4.2262565  0.010007691    113.39294    343.90846 
   62200    679.71629   0.26640012    14.577558   0.19902163        0.005     3.880244  0.010022587    112.85753    342.98809 
   62300    680.72432   0.26552854    14.600547   0.19902163        0.005    4.0260393  0.010904756     109.4663    342.08443 
   62400    681.81048   0.26581291    14.625443   0.19902163        0.005    4.3401618  0.011025579    111.04917     341.1729 
   62500    682.80634   0.26590949    14.647575   0.19902163        0.005     3.841117  0.010208507     111.6954    340.25827 
   62600    683.84432    0.2658458    14.671666   0.19902163        0.005    4.1460575  0.010892786    108.92038    339.35734 
   62700    684.88804   0.26624315    14.695708   0.19902163        0.005    3.7819564  0.010222745    111.23371    338.44499 
   62800    685.93134   0.26659105    14.719492   0.19902163        0.005    3.8692094  0.011237402    112.47657     337.5268 
   62900    686.95874   0.26592072    14.743004   0.19902163        0.005    3.8946278 0.0096933029    112.75687     336.6074 
   63000    687.94715   0.26535957    14.764785   0.19902163        0.005    3.9228152  0.010483809    108.44939    335.70879 
   63100    688.95198   0.26572231    14.786564   0.19902163        0.005    3.6866805  0.010125344    111.86472    334.79364 
   63200    690.01545   0.26426615    14.810946   0.19902163        0.005    3.7277177  0.010749883    112.03226    333.87778 
   63300    691.08831   0.26578808    14.833455   0.19902163        0.005    4.2118483  0.009243013    113.77302    332.95407 
   63400    692.12268    0.2649534    14.856238   0.19902163        0.005    4.0769621  0.010736728     112.2551    332.03737 
   63500    693.18166   0.26484384    14.879504   0.19902163        0.005    3.5781325  0.011399934    110.32779     331.1297 
   63600    694.27584   0.26665689    14.902795   0.19902163        0.005    3.6009166  0.010647731    112.94521    330.21001 
   63700    695.35443    0.2654808     14.92647   0.19902163        0.005    4.4665947  0.010520997    111.73384    329.29589 
   63800    696.39313   0.26586167    14.949532   0.19902163        0.005    4.1270915  0.010508924     111.8632    328.38125 
   63900    697.42996     0.265897    14.972123   0.19902163        0.005    4.0439483  0.009803948    109.87202    327.47582 
   64000    698.50248   0.26502125    14.997074   0.19902163        0.005    4.0078495  0.010393674    110.74871    326.56633 
   64100    699.54703   0.26562377    15.021149   0.19902163        0.005    3.7465875  0.010247019    110.68117    325.65717 
   64200    700.59594   0.26570944    15.044733   0.19902163        0.005    3.9110957   0.01121339    111.07432    324.74624 
   64300    701.63937     0.265236     15.06761   0.19902163        0.005    4.3803735  0.010554704    106.32801    323.85766 
   64400    702.69905   0.26545359     15.09227   0.19902163        0.005    3.7228098  0.010484316    107.98181    322.96095 
   64500    703.73728   0.26514351    15.115566   0.19902163        0.005    3.8033647  0.010453273    106.87756    322.06942 
   64600    704.77736   0.26528702    15.138024   0.19902163        0.005    4.9177145 0.0097973821    110.29335    321.16187 
   64700    705.80852   0.26569852    15.159736   0.19902163        0.005    4.7783269 0.0093523485    111.51232    320.24892 
   64800     706.7956   0.26535087    15.182056   0.19902163        0.005    4.1083882  0.010724805    110.76073    319.33932 
   64900    707.82533   0.26486395    15.203868   0.19902163        0.005    4.1730764  0.010741437     110.3161    318.43171 
   65000    708.83149   0.26505396     15.22524   0.19902163        0.005    4.0580356   0.01014985    109.93578     317.5258 
   65100     709.8752   0.26455141    15.248856   0.19902163        0.005    4.3486944  0.010544761    109.15432    316.62336 
   65200    710.89471   0.26474806    15.270961   0.19902163        0.005    4.6535791 0.0094289072    109.51992    315.71925 
   65300     711.8378   0.26594591    15.290756   0.19902163        0.005    4.6729303 0.0093153284    111.06682    314.80836 
   65400    712.76223   0.26581095    15.310399   0.19902163        0.005    4.4653496 0.0091329638    110.36637    313.90052 
   65500    713.78499   0.26626295    15.333494   0.19902163        0.005    4.6484598 0.0093104324    110.82064    312.99073 
   65600    714.76737   0.26435898    15.355248   0.19902163        0.005    5.0381745 0.0096635301    110.33072    312.08306 
   65700    715.76675   0.26548578    15.378329   0.19902163        0.005    4.4715222  0.009628271    110.84002    311.17322 
   65800    716.79459   0.26564001    15.401512   0.19902163        0.005    3.8409998  0.010652927    110.89304    310.26318 
   65900    717.83215   0.26682475     15.42397   0.19902163        0.005    5.1881979 0.0094231093    110.28932    309.35572 
   66000     718.8073   0.26599364    15.444821   0.19902163        0.005    4.2624911  0.010563485    111.16125     308.4446 
   66100    719.84073   0.26569122    15.466319   0.19902163        0.005    3.8603944  0.010329084    112.00204    307.53005 
   66200    720.86721    0.2669117    15.487628   0.19902163        0.005    4.3567617  0.010743886     111.7763    306.61649 
   66300    721.94385   0.26587761    15.511851   0.19902163        0.005    4.0114268    0.0106082    111.17633    305.70544 
   66400    722.98118    0.2649469    15.534949   0.19902163        0.005    4.5007263  0.010581378    111.81829    304.79181 
   66500    724.01812   0.26514909    15.558232   0.19902163        0.005    4.6444294  0.010182612    109.10469    303.88944 
   66600    725.07571   0.26496087    15.581869   0.19902163        0.005    3.8262682  0.010910065    110.37357    302.98175 
   66700    726.16204   0.26551308    15.604512   0.19902163        0.005    3.5878919   0.01156244    110.64418    302.07295 
   66800    727.20684   0.26440763     15.62701   0.19902163        0.005    4.7121795  0.010236948    109.83519    301.16748 
   66900    728.30157   0.26481249     15.65121   0.19902163        0.005    3.9712473  0.011311721    110.45208    300.25948 
   67000    729.37193   0.26496974    15.675351   0.19902163        0.005    3.8557364  0.010351896    110.50592    299.35127 
   67100    730.41818   0.26558166     15.69856   0.19902163        0.005    3.7528752   0.01073737    110.27462      298.444 
   67200    731.50863   0.26588956    15.722511   0.19902163        0.005      3.77296  0.010519886    111.02869    297.53372 
   67300    732.57524   0.26545483    15.745688   0.19902163        0.005    4.1716625  0.010401436    110.65046    296.62497 
   67400    733.60553    0.2654335    15.767949   0.19902163        0.005    4.0547141  0.010071823    102.14043    295.75265 
   67500    734.64073   0.26490145    15.791421   0.19902163        0.005    4.2112537  0.011478079    102.65855    294.87764 
   67600    735.69972   0.26468865    15.814495   0.19902163        0.005    3.9194273  0.010812545    110.45624    293.96938 
   67700     736.7583   0.26591329    15.838236   0.19902163        0.005    4.2586876  0.010089836    110.46037     293.0611 
   67800    737.82834   0.26582384    15.860919   0.19902163        0.005    3.8113311  0.011773741    109.53287    292.15648 
   67900    738.90316   0.26593041    15.884991   0.19902163        0.005    4.3465833   0.00981354    111.15235    291.24555 
   68000    739.89859   0.26555515    15.906472   0.19902163        0.005    3.8523981  0.010282181    110.51055     290.3371 
   68100    740.94897   0.26578866    15.929668   0.19902163        0.005    3.7358606  0.010979907     109.5588    289.43235 
   68200    741.97328   0.26564522     15.95207   0.19902163        0.005    4.0381782 0.0096136055    108.36242    288.53227 
   68300     742.9932    0.2670172    15.973015   0.19902163        0.005    3.8180971  0.010704102    111.48745    287.62013 
   68400    744.05329   0.26505113    15.995718   0.19902163        0.005    3.7877876  0.010877133    112.77363     286.7033 
   68500    745.08648   0.26551978    16.017203   0.19902163        0.005    4.5992792 0.0096856226    103.93973    285.82121 
   68600    746.10531   0.26492207    16.038173   0.19902163        0.005    3.8343413  0.010105781    109.40296     284.9169 
   68700    747.11807   0.26629337    16.059464   0.19902163        0.005    4.4495523  0.010511549    111.40871    284.00507 
   68800    748.13912   0.26558553    16.080411   0.19902163        0.005    3.8529219  0.011091464    108.98922    283.10231 
   68900    749.18804   0.26593046    16.101351   0.19902163        0.005    4.1690266  0.010152306     110.0604    282.19548 
   69000    750.21755   0.26523392    16.122425   0.19902163        0.005    3.6691513  0.010517026    112.99371    281.27804 
   69100    751.28264   0.26561545    16.143922   0.19902163        0.005    4.8900831  0.010176426    110.06147    280.37124 
   69200    752.32794   0.26583981    16.165377   0.19902163        0.005    3.9550115   0.01111583    109.79396    279.46543 
   69300    753.36732   0.26527082    16.186623   0.19902163        0.005    3.9694211  0.010024998     111.2592    278.55428 
   69400    754.33522   0.26600919    16.206239   0.19902163        0.005    3.9235572   0.01087175    110.50443    277.64588 
   69500    755.38702   0.26577306     16.22956   0.19902163        0.005    4.0574064  0.010934775    111.50933    276.73391 
   69600    756.43721   0.26656266     16.25201   0.19902163        0.005    4.4226096  0.010009137    101.55348    275.86038 
   69700    757.46588   0.26564035    16.273488   0.19902163        0.005    3.8308887  0.010976347     110.6923     274.9512 
   69800    758.51244   0.26522891    16.296109   0.19902163        0.005    4.5326693  0.010167725     110.5791    274.04243 
   69900    759.55593   0.26585986    16.318312   0.19902163        0.005    4.5783815 0.0097467135    113.47544    273.12373 
   70000     760.6036   0.26624753     16.34014   0.19902163        0.005    4.0618462  0.010333859      108.833    272.22125 
   70100    761.65161   0.26559525    16.362644   0.19902163        0.005     3.940904 0.0095987992    113.28544    271.30332 
   70200    762.70973   0.26474485    16.384083   0.19902163        0.005    4.7985102   0.01035995    110.54952    270.39476 
   70300    763.76128      0.26525    16.406253   0.19902163        0.005    4.3827833   0.01127345    110.87052    269.48511 
   70400    764.82289   0.26427001    16.427425   0.19902163        0.005    4.0489005  0.010291082    110.82087    268.57565 
   70500    765.82651    0.2659258    16.448486   0.19902163        0.005    4.4143262 0.0099738633    111.59795    267.66358 
   70600    766.78471   0.26590162    16.468093   0.19902163        0.005    4.4471779 0.0085061549     110.2514    266.75612 
   70700    767.78468   0.26590451     16.48876   0.19902163        0.005    3.7000459   0.01053609    103.12457    265.87463 
   70800    768.81487   0.26529063     16.50966   0.19902163        0.005    3.7985698  0.009818972    104.91935    264.98605 
   70900    769.88203   0.26637269    16.530889   0.19902163        0.005    4.1595487  0.010603508    111.11631    264.07548 
   71000    770.94775   0.26642208     16.55144   0.19902163        0.005    4.1418876  0.011100463    109.51437    263.17031 
   71100    772.00094   0.26554329    16.571343   0.19902163        0.005    3.6874967  0.010587331    110.04914    262.26331 
   71200    773.06635   0.26453513    16.591919   0.19902163        0.005    4.2221627  0.011002742    111.40549    261.35183 
   71300    774.12098   0.26536739    16.612228   0.19902163        0.005    4.2269328  0.010872698    112.73423    260.43614 
   71400     775.1964   0.26598675    16.632311   0.19902163        0.005    3.9949141   0.01008944    112.65638    259.52077 
   71500    776.22976   0.26599987    16.651824   0.19902163        0.005     3.885012  0.011274206    109.89638    258.61436 
   71600    777.28167   0.26590558    16.670974   0.19902163        0.005    4.3158754  0.010549705     110.5747    257.70574 
   71700    778.34292   0.26561593    16.691232   0.19902163        0.005    4.1813745  0.010215816     110.4627    256.79748 
   71800    779.38415   0.26578423    16.710425   0.19902163        0.005    3.8193134  0.010548213    112.47355    255.88287 
   71900    780.40985   0.26495407     16.73038   0.19902163        0.005    4.2920118  0.011059085    111.39803     254.9717 
   72000    781.46176   0.26577917    16.750448   0.19902163        0.005    4.0815328  0.010831771    110.67799    254.06283 
   72100    782.52697   0.26556943    16.770163   0.19902163        0.005      4.38873  0.010833075    109.93371    253.15634 
   72200    783.58127   0.26595438    16.791471   0.19902163        0.005    3.7070311   0.01120604    111.67345    252.24438 
   72300    784.61489   0.26471922    16.812461   0.19902163        0.005    3.7930569 0.0099014571    110.15608     251.3372 
   72400    785.66863    0.2645325    16.834995   0.19902163        0.005    3.9909787 0.0098325429    110.50565    250.42892 
   72500    786.64561   0.26597077    16.855109   0.19902163        0.005    4.0597181 0.0091820087    110.97868    249.51919 
   72600    787.55953   0.26624116    16.873967   0.19902163        0.005    4.3293096 0.0095902098    111.20227     248.6088 
   72700    788.53581   0.26506322    16.893789   0.19902163        0.005     4.639616  0.010409647     111.4318    247.69774 
   72800    789.60767   0.26514585    16.915224   0.19902163        0.005    4.3532544    0.0107239    110.83317    246.78853 
   72900    790.67608   0.26608956    16.936788   0.19902163        0.005    4.1991585  0.010003597    110.72015    245.87969 
   73000    791.67932   0.26543957    16.957077   0.19902163        0.005    3.8498854  0.011162164    110.49576    244.97153 
   73100    792.71017   0.26552967    16.978388   0.19902163        0.005    3.9005942  0.010309592    110.62877    244.06299 
   73200    793.72008   0.26540535    17.000032   0.19902163        0.005    4.4878239  0.010103316     112.5988    243.14867 
   73300    794.76628   0.26642884    17.022208   0.19902163        0.005    4.1383139 0.0098493136    111.33714    242.23808 
   73400    795.79429   0.26614722    17.044163   0.19902163        0.005    3.8690699  0.010151007    111.24002    241.32781 
   73500    796.81832   0.26505914    17.065089   0.19902163        0.005     5.218105 0.0093228858    111.35659    240.41724 
   73600    797.83156   0.26491912    17.087307   0.19902163        0.005    3.9155222  0.010226654    113.12317    239.50167 
   73700    798.89372   0.26558807    17.110858   0.19902163        0.005     4.064785  0.011460025    112.58791    238.58768 
   73800     800.0038   0.26552053    17.136211   0.19902163        0.005    3.7569555   0.00927716     111.7668    237.67608 
   73900     801.0649   0.26506356    17.160558   0.19902163        0.005    4.4066815  0.010291917    112.39528    236.76276 
   74000    802.12588   0.26473441     17.18392   0.19902163        0.005    4.4762168  0.008980884    103.93142    235.87496 
   74100     803.1509   0.26457957    17.206341   0.19902163        0.005    4.2305114  0.011097235    110.16516    234.96793 
   74200    804.14473   0.26571362    17.227995   0.19902163        0.005    4.4910881 0.0094164418     108.7996    234.06486 
   74300    805.11346   0.26507295    17.248347   0.19902163        0.005    3.6311253 0.0092607056    111.84244    233.15309 
   74400    806.02758   0.26514688    17.267278   0.19902163        0.005    4.0641716  0.010279895    112.09555    232.24068 
   74500    807.13038   0.26570764    17.290047   0.19902163        0.005    3.6804406  0.010707622    111.47018    231.33004 
   74600     808.1754   0.26580539    17.312841   0.19902163        0.005    3.8250814  0.010585227    112.43725     230.4168 
   74700    809.22617   0.26551617    17.336004   0.19902163        0.005    4.2047704  0.010513163    112.45645    229.50358 
   74800    810.29546   0.26565107    17.359327   0.19902163        0.005    4.1655466  0.010303163    111.71363    228.59242 
   74900    811.33928   0.26427007    17.381909   0.19902163        0.005    3.7292112  0.011352329     111.7075    227.68131 
   75000    812.40008   0.26477796    17.404865   0.19902163        0.005    3.9434066  0.010880174    111.16891    226.77169 
   75100     813.4288    0.2649092    17.428615   0.19902163        0.005    4.5415016 0.0099398083    106.91905    225.87395 
   75200    814.46916   0.26460934    17.452539   0.19902163        0.005    4.1871581   0.01079574    104.77449    224.98243 
   75300    815.47238   0.26482811    17.475425   0.19902163        0.005     4.156309  0.010261482     111.1751    224.07272 
   75400    816.52553   0.26502276    17.499331   0.19902163        0.005    3.7368514  0.011216029    112.79386    223.15882 
   75500    817.56668   0.26456738    17.522131   0.19902163        0.005     3.999872  0.010708844    111.17607    222.24918 
   75600    818.61662   0.26474897    17.545783   0.19902163        0.005    3.6781764  0.010263043    110.94939    221.34016 
   75700    819.68789   0.26487421    17.569284   0.19902163        0.005    4.2692437  0.010150666    110.19805    220.43313 
   75800    820.74515   0.26430259    17.593042   0.19902163        0.005    3.9953836  0.010110674    111.11866     219.5237 
   75900    821.76411   0.26478195     17.61717   0.19902163        0.005    4.1299022  0.009054911    111.33874    218.61373 
   76000    822.74635   0.26502044    17.639937   0.19902163        0.005    3.8795133  0.010185178    110.33618    217.70637 
   76100    823.78323   0.26497077    17.663972   0.19902163        0.005    4.2876283 0.0094161893    109.21083    216.80195 
   76200    824.81113   0.26509778    17.688322   0.19902163        0.005    4.1854968  0.010507517    109.35918     215.8971 
   76300    825.83083   0.26563935    17.710965   0.19902163        0.005    4.1439716 0.0099748287     108.8086    214.99367 
   76400    826.85838   0.26533839     17.73359   0.19902163        0.005     4.216891  0.009659871    110.05024      214.087 
   76500    827.92497   0.26415634    17.757583   0.19902163        0.005    4.2575652  0.011249346    112.77721    213.17357 
   76600    828.96376   0.26557881    17.780225   0.19902163        0.005    3.6472168  0.010368997    112.36246    212.26121 
   76700    830.01708    0.2662927    17.804643   0.19902163        0.005    4.4234245 0.0098752236    109.42163    211.35618 
   76800    831.02347   0.26671382     17.82775   0.19902163        0.005    4.3725471  0.010350452    110.75362     210.4478 
   76900    832.07766   0.26528212    17.852192   0.19902163        0.005    4.1978365  0.010061401    109.72948    209.54197 
   77000    833.10044   0.26501308    17.875573   0.19902163        0.005    3.7085163  0.010921783    110.88357    208.63329 
   77100    834.14982   0.26686581    17.898379   0.19902163        0.005    3.9401075  0.010610875    114.16697    207.71692 
   77200    835.19973   0.26626536    17.921557   0.19902163        0.005    3.7201452  0.010582166    113.28725    206.80267 
   77300    836.24679   0.26468324    17.944388   0.19902163        0.005    4.0322846  0.010854508     111.7136    205.89215 
   77400    837.29052   0.26575786    17.967448   0.19902163        0.005    4.3033091   0.01139236     112.2594     204.9804 
   77500    838.35954   0.26482191    17.991271   0.19902163        0.005    4.4923649  0.010080686    112.20312    204.06884 
   77600    839.38596   0.26648586    18.015116   0.19902163        0.005    4.1178455   0.01116306    112.69406     203.1562 
   77700     840.4052   0.26502139      18.0391   0.19902163        0.005    3.9319295   0.00954664    111.48671    202.24639 
   77800    841.42471   0.26691493     18.06181   0.19902163        0.005    4.1453858  0.010551955    112.33318    201.33468 
   77900    842.44427   0.26687845    18.084143   0.19902163        0.005    4.0493187   0.01021774     111.4416    200.42505 
   78000    843.45444   0.26590319    18.106716   0.19902163        0.005    3.8546718  0.010468685    110.87814    199.51674 
   78100    844.48124   0.26570027    18.129231   0.19902163        0.005    4.3215658 0.0099431956    110.54853     198.6092 
   78200    845.48343   0.26497865    18.150661   0.19902163        0.005     4.074797 0.0093612543    111.18426    197.70022 
   78300    846.48277   0.26545721    18.171935   0.19902163        0.005    4.0270191  0.010413221    108.32721    196.79784 
   78400    847.51561   0.26673675    18.193611   0.19902163        0.005    3.8990183  0.010824129    108.83737    195.89421 
   78500    848.45473   0.26448756    18.215119   0.19902163        0.005    4.0176929    0.0108285    112.80939    194.98169 
   78600    849.53737   0.26578986     18.23837   0.19902163        0.005    3.8082876  0.010919422    109.80371    194.07584 
   78700     850.5692    0.2652236    18.260758   0.19902163        0.005    4.1901265 0.0096674316    111.38214    193.16649 
   78800    851.56797   0.26650426     18.28137   0.19902163        0.005    4.2093026   0.01002381     110.1027    192.25997 
   78900    852.60542   0.26530365    18.304648   0.19902163        0.005    4.3933616  0.010012341    109.79215    191.35413 
   79000    853.63795   0.26604394     18.32686   0.19902163        0.005    3.9655312  0.010914282    108.90554    190.45025 
   79100    854.69056   0.26685055    18.350356   0.19902163        0.005    4.4484883  0.010963862    107.83542    189.54874 
   79200    855.75452   0.26620962    18.373719   0.19902163        0.005    3.9385983  0.010504638    109.97735    188.64243 
   79300    856.83119   0.26646555    18.396287   0.19902163        0.005    4.3102727   0.01051344    111.92669    187.73197 
   79400    857.80944    0.2666624    18.417218   0.19902163        0.005    4.1490813  0.010461972    111.21814    186.82303 
   79500    858.85551   0.26445593    18.440704   0.19902163        0.005    4.3788489  0.010178128    111.85333     185.9128 
   79600    859.89526   0.26557006    18.462528   0.19902163        0.005    4.7694619  0.010135492    110.59071    185.00523 
   79700      860.948   0.26568457    18.485548   0.19902163        0.005    4.6444802  0.010225293    110.62229     184.0976 
   79800    862.01892    0.2659644    18.507493   0.19902163        0.005    4.1120431  0.010575718    110.81461    183.18958 
   79900    863.09328   0.26657308    18.529098   0.19902163        0.005    3.8082418  0.011183722    112.04585    182.27909 
   80000    864.14406   0.26613324    18.549649   0.19902163        0.005    3.8964847  0.010241557    110.15605    181.37246 
   80100     865.2029   0.26546821    18.571234   0.19902163        0.005    4.5302575 0.0096091298    110.03629    180.46608 
   80200    866.26897   0.26512238    18.593217   0.19902163        0.005    3.5482274   0.01123631    109.80877    179.56015 
   80300    867.32129   0.26564086     18.61494   0.19902163        0.005    4.3887216  0.010779147    111.55013    178.65073 
   80400    868.37549   0.26508892    18.637016   0.19902163        0.005    4.9081726 0.0098469435    111.52774    177.74138 
   80500    869.45526    0.2655017    18.659173   0.19902163        0.005    3.8454704  0.011018555    111.58732    176.83195 
   80600    870.52365   0.26579187    18.680835   0.19902163        0.005    3.9429638  0.010042451    109.74734    175.92617 
   80700     871.6024   0.26444262     18.70472   0.19902163        0.005    4.3986837  0.011023836    109.81299    175.02024 
   80800    872.70529   0.26553515    18.727399   0.19902163        0.005    4.4675496  0.011032757    111.62447    174.11079 
   80900    873.77171   0.26534459    18.748985   0.19902163        0.005    4.2517586 0.0098904026    110.35406    173.20381 
   81000    874.75506   0.26519364    18.768817   0.19902163        0.005    3.9965729  0.011313726    109.46261    172.29856 
   81100     875.7739   0.26619365    18.789743   0.19902163        0.005    4.0744396  0.010509384    108.58564    171.39501 
   81200    876.82879   0.26624599    18.810329   0.19902163        0.005    3.7925844  0.011035986    110.85479    170.48706 
   81300    877.91161   0.26620397    18.831601   0.19902163        0.005    4.0686385  0.010888361    109.69401    169.58131 
   81400    878.94768   0.26525442    18.851862   0.19902163        0.005    4.2399422  0.010049837    111.11554    168.67288 
   81500    879.99819   0.26628785    18.871747   0.19902163        0.005    3.6920309  0.010567773    111.45848    167.76385 
   81600    881.03269   0.26652718    18.890943   0.19902163        0.005    4.3850025   0.01012822    111.99501    166.85388 
   81700    882.07958   0.26639788    18.911634   0.19902163        0.005    3.7326881  0.011772886    110.13349    165.94733 
   81800    883.16648    0.2659906    18.933153   0.19902163        0.005    3.8613792 0.0085527125    112.32737    165.03682 
   81900    884.21936   0.26551195    18.954211   0.19902163        0.005     3.877414  0.010639136    110.29141    164.13001 
   82000    885.22113   0.26576046     18.97401   0.19902163        0.005    4.1959899 0.0095774277    105.04732    163.23312 
   82100    886.20753   0.26543877    18.994245   0.19902163        0.005    3.6967726 0.0093208594    108.12726    162.33019 
   82200    887.19718   0.26538783    19.014608   0.19902163        0.005    3.7013975  0.010616146     109.5343    161.42464 
   82300    888.24204   0.26576115    19.035801   0.19902163        0.005    3.6631719  0.010059595    107.80299    160.52222 
   82400    889.27071   0.26583732    19.056452   0.19902163        0.005    4.4584025 0.0098131358    107.97492    159.61942 
   82500    890.25657    0.2652699     19.07619   0.19902163        0.005    4.1098766 0.0088685822     107.7908     158.7169 
   82600    891.17091   0.26499061    19.095472   0.19902163        0.005    4.8038803 0.0096985078    109.02653    157.81211 
   82700    892.18934    0.2650815    19.116239   0.19902163        0.005    4.5632431  0.010374601    109.54091    156.90638 
   82800    893.25972   0.26503339    19.139218   0.19902163        0.005     4.432262  0.010895974    112.53188     155.9956 
   82900    894.31233   0.26629474    19.162503   0.19902163        0.005     3.697252  0.010962551    112.11719    155.08555 
   83000    895.33353   0.26623737    19.184938   0.19902163        0.005    4.1575423  0.010512471    110.71071    154.17787 
   83100    896.37712   0.26646042    19.207156   0.19902163        0.005    4.5220752  0.010542451    113.23938    153.26609 
   83200    897.42162   0.26608978    19.230521   0.19902163        0.005    4.1585718  0.010387756    112.13062    152.35614 
   83300     898.4438    0.2645746    19.253097   0.19902163        0.005    3.8517157   0.01124976    113.26684    151.44445 
   83400    899.50264   0.26554633     19.27482   0.19902163        0.005    3.9743828  0.010571744    112.14345    150.53458 
   83500    900.58291     0.266609     19.29717   0.19902163        0.005     3.763845 0.0096904464     112.6414    149.62398 
   83600    901.66128   0.26494796     19.32035   0.19902163        0.005    3.6645137  0.011460425    113.19644    148.71258 
   83700    902.72554   0.26628129    19.343388   0.19902163        0.005    3.8099563 0.0099706059    112.39606    147.80247 
   83800    903.76954   0.26552915    19.365752   0.19902163        0.005    3.9444452  0.011046573    112.27905    146.89259 
   83900    904.84394   0.26555399    19.389091   0.19902163        0.005    4.3131833  0.010746316    112.79856    145.98197 
   84000    905.78638   0.26580372    19.409387   0.19902163        0.005    3.8021032 0.0096434897    108.29639    145.07842 
   84100    906.81399   0.26578788    19.432059   0.19902163        0.005    4.0043782  0.010648477    113.73418    144.16648 
   84200     907.8441   0.26481085    19.455761   0.19902163        0.005    3.8808179   0.01038973    113.31574    143.25523 
   84300    908.89657   0.26498162    19.479321   0.19902163        0.005    4.5141227  0.010927332    112.46824    142.34529 
   84400    909.97177   0.26667611     19.50262   0.19902163        0.005    3.7174496    0.0108925    110.99111    141.43758 
   84500    911.00538    0.2655137     19.52578   0.19902163        0.005    3.7358568  0.010509123    114.36218    140.52501 
   84600    912.08926   0.26614799    19.549729   0.19902163        0.005    4.3759458  0.010391885    111.86195     139.6161 
   84700    913.09659   0.26563002    19.572372   0.19902163        0.005     4.836668 0.0098104976    111.39019     138.7079 
   84800    914.07652   0.26575931    19.593885   0.19902163        0.005    4.7556741 0.0098194401     112.0589    137.79877 
   84900     915.0429   0.26682317    19.614583   0.19902163        0.005    3.8039816  0.010421457    112.23068    136.88943 
   85000    916.08976   0.26582836    19.637911   0.19902163        0.005    3.9310368  0.010780317    109.55854    135.98397 
   85100    917.17946   0.26637319    19.661959   0.19902163        0.005    4.0789306 0.0097229436    112.59955    135.07418 
   85200    918.15848   0.26680649    19.682793   0.19902163        0.005    5.0221537 0.0093402026    113.73653     134.1629 
   85300    919.06813   0.26576535    19.703458   0.19902163        0.005    5.4922764 0.0090135568    111.38451    133.25489 
   85400    920.00583   0.26458555    19.724376   0.19902163        0.005    4.5525955  0.010380645    112.41841    132.34549 
   85500    921.05029     0.266999    19.747298   0.19902163        0.005     3.798274  0.010334736    111.91427    131.43682 
   85600    922.03516   0.26574159    19.770407   0.19902163        0.005    5.1505659 0.0095497432    113.08508    130.52663 
   85700     922.9526   0.26528278    19.790704   0.19902163        0.005    4.8682505 0.0089046729    112.79195    129.61689 
   85800    923.91916   0.26588552    19.813087   0.19902163        0.005    4.6296769  0.010625402    111.50547    128.70889 
   85900    924.98133   0.26522882     19.83729   0.19902163        0.005    4.2304082   0.01079151     113.3968    127.79846 
   86000    926.05381   0.26616456    19.861136   0.19902163        0.005    4.0793193  0.011109129    110.39222      126.892 
   86100    927.14889    0.2656324    19.885093   0.19902163        0.005    3.8189232  0.010697579    112.30391    125.98306 
   86200    928.23852   0.26635933     19.91038   0.19902163        0.005    4.2748165  0.010279707    113.04402    125.07323 
   86300    929.30192   0.26596268    19.932479   0.19902163        0.005    4.3061377  0.010349211    114.40601    124.16178 
   86400    930.35494   0.26674291    19.954427   0.19902163        0.005    4.3624412  0.010509411    111.64378    123.25382 
   86500    931.42848   0.26516811    19.977668   0.19902163        0.005    3.9592067  0.011069588    112.45974    122.34488 
   86600    932.49046   0.26649651    20.000028   0.19902163        0.005     4.186087  0.010775078    111.43541    121.43725 
   86700     933.5198   0.26696145    20.021734   0.19902163        0.005    4.1919465  0.011101315    112.93092    120.52782 
   86800    934.59434   0.26583474    20.044213   0.19902163        0.005    3.7480164  0.010332905    112.33227    119.61916 
   86900    935.71193   0.26530335    20.068139   0.19902163        0.005    4.2136191  0.010726132    112.56546    118.71026 
   87000    936.79591   0.26548112    20.092719   0.19902163        0.005    4.1954464  0.010880482    111.25304    117.80298 
   87100    937.89548   0.26546727    20.116305   0.19902163        0.005    4.1492127  0.011142806    110.99728    116.89603 
   87200    938.92608   0.26587525    20.138955   0.19902163        0.005    4.2797805  0.011112238    112.98169    115.98676 
   87300    939.93791   0.26589038    20.161198   0.19902163        0.005    4.4320842 0.0090193009     108.8548    115.08244 
   87400    940.90734    0.2657131    20.182643   0.19902163        0.005    4.2950998  0.010490536     102.3837    114.18645 
   87500    941.92585   0.26731639    20.204261   0.19902163        0.005    4.2056923  0.010094941     102.3312    113.29035 
   87600    942.98444   0.26604499    20.227069   0.19902163        0.005    3.7042212  0.010868789    103.65402    112.39229 
   87700     944.0598   0.26537813    20.249145   0.19902163        0.005    4.2856986  0.010300427    111.78506    111.48425 
   87800    945.00474   0.26694601    20.268183   0.19902163        0.005     3.733883 0.0087591324    110.89485    110.57723 
   87900     945.9594   0.26610596    20.287781   0.19902163        0.005    4.1662174  0.011045407    112.50188    109.66845 
   88000    946.97374    0.2669909    20.308548   0.19902163        0.005    3.9809628  0.010654374    109.88215    108.76261 
   88100    948.05198   0.26588695    20.330625   0.19902163        0.005    4.3949799  0.009116937    111.54017    107.85492 
   88200    948.94789   0.26619725    20.348406   0.19902163        0.005    3.9938238 0.0089973096    113.10374    106.94561 
   88300    949.90572   0.26619625    20.368198   0.19902163        0.005    4.3258738   0.01018477    113.43336    106.03601 
   88400    950.94545   0.26573188    20.389288   0.19902163        0.005    3.8588539  0.010877494    113.13803    105.12678 
   88500    952.03402   0.26602396    20.411314   0.19902163        0.005    3.4654744  0.010108265    111.95514    104.21882 
   88600    953.11509   0.26638968    20.433221   0.19902163        0.005    3.9020021  0.010456591    113.46488    103.30936 
   88700     954.1707   0.26616266     20.45507   0.19902163        0.005    4.1490861 0.0099400256    111.36898    102.40208 
   88800    955.21941   0.26575756    20.476315   0.19902163        0.005    3.8145818  0.010533093    112.03615    101.49415 
   88900    956.26757   0.26590188    20.497797   0.19902163        0.005    4.1222841  0.010966656    113.42591    100.58488 
   89000    957.34086    0.2658325    20.519742   0.19902163        0.005    4.0159173  0.010871725    111.46704    99.677596 
   89100    958.33401   0.26585991    20.540431   0.19902163        0.005    3.7000169  0.010289659    112.17656    98.769636 
   89200     959.4004   0.26529438    20.562486   0.19902163        0.005    4.2884884  0.010454347    111.00133    97.862857 
   89300    960.44668   0.26534457    20.583997   0.19902163        0.005    3.6868546 0.0098590666    113.32704    96.953875 
   89400      961.488   0.26415856    20.604791   0.19902163        0.005    3.9351877  0.010582905     112.2362     96.04597 
   89500    962.53095   0.26596998    20.625655   0.19902163        0.005    3.9917818  0.011127115    112.35842    95.137989 
   89600    963.61075   0.26531866    20.648212   0.19902163        0.005    3.9258044  0.010617703    112.67009    94.229762 
   89700     964.6053   0.26517767    20.668177   0.19902163        0.005    4.0623848  0.011130214    113.61145    93.320737 
   89800    965.66582   0.26584423    20.691783   0.19902163        0.005    4.1966923  0.010999026    113.44171    92.411926 
   89900    966.74509   0.26525454    20.715047   0.19902163        0.005    3.6207263  0.010310887    114.05723    91.502641 
   90000    967.85364   0.26665117    20.737943   0.19902163        0.005    4.2504614  0.010222884    111.53854    90.595628 
   90100    968.89752   0.26614624    20.760291   0.19902163        0.005    3.9505226  0.010219754     112.0231    89.688212 
   90200     969.9449   0.26629943    20.782648   0.19902163        0.005    4.2672866  0.011268944     113.2744    88.779758 
   90300    970.99627   0.26590009    20.804998   0.19902163        0.005    4.7086657   0.01039823    112.95863    87.871625 
   90400    972.06651   0.26550527    20.827721   0.19902163        0.005    3.8526002  0.010758572    113.07255    86.963448 
   90500    973.15161   0.26673842    20.851321   0.19902163        0.005     4.251761  0.011189785    113.96413    86.054598 
   90600    974.22544   0.26553443    20.874847   0.19902163        0.005    4.0612854  0.010754277     112.0132    85.147402 
   90700     975.2732   0.26521231    20.897411   0.19902163        0.005    4.5328763  0.010390317    113.35078    84.239158 
   90800     976.3328   0.26446463    20.920072   0.19902163        0.005    3.8342401  0.010595691    114.17586    83.330326 
   90900    977.37803   0.26483153    20.941992   0.19902163        0.005    3.8928594  0.011017274    112.60055    82.422792 
   91000    978.40576   0.26645261    20.963838   0.19902163        0.005    3.8737278  0.010316286    110.74579    81.516773 
   91100    979.48122   0.26640689    20.987402   0.19902163        0.005    3.8976854  0.010746098    112.96447    80.609027 
   91200    980.49255   0.26683759    21.008706   0.19902163        0.005     4.017141  0.010051576    111.84569    79.702186 
   91300    981.51508   0.26546655    21.030155   0.19902163        0.005    3.7211857  0.010720528    111.93533    78.795304 
   91400    982.54615   0.26502938     21.05316   0.19902163        0.005    3.7825085   0.01054432    113.17314    77.887532 
   91500    983.60356   0.26607259    21.076185   0.19902163        0.005    3.9257021  0.011653128    111.44793    76.981084 
   91600    984.68231   0.26602567    21.098056   0.19902163        0.005    3.6398071  0.010307296    113.16352    76.073408 
   91700    985.68245   0.26436166    21.118929   0.19902163        0.005    4.4257977 0.0099468127    112.50112    75.166256 
   91800    986.69791   0.26491505    21.140225   0.19902163        0.005    4.1908165  0.010324754    112.72317    74.258987 
   91900    987.68887   0.26483351    21.160789   0.19902163        0.005    3.7807544 0.0092007537    113.05478    73.351532 
   92000    988.60919    0.2651708    21.179769   0.19902163        0.005    4.1024657 0.0093841241    110.73743    72.445737 
   92100     989.6047   0.26526163    21.199047   0.19902163        0.005    4.3488244 0.0094945004    111.72973     71.53926 
   92200    990.68705    0.2649802    21.221418   0.19902163        0.005    4.2535969  0.010459943    114.08974    70.631242 
   92300    991.73501   0.26509808    21.242012   0.19902163        0.005    4.2244477 0.0099231243    112.06315    69.724614 
   92400    992.79121   0.26655041    21.262818   0.19902163        0.005    3.8317582   0.01059319    113.33154    68.817195 
   92500    993.84328   0.26572725     21.28402   0.19902163        0.005    3.7354775  0.010294987       112.83    67.910149 
   92600    994.88917    0.2655906    21.305547   0.19902163        0.005    4.3890389  0.010289346      114.112    67.002352 
   92700    995.94097   0.26484396    21.327085   0.19902163        0.005      3.85232   0.01116855    113.10722    66.095236 
   92800    996.98204   0.26507745    21.348024   0.19902163        0.005    3.6365095  0.010189607    111.31259    65.189275 
   92900    997.99462   0.26507063    21.369655   0.19902163        0.005    3.5903099  0.010051792    105.78451    64.286919 
   93000    999.02044   0.26430149    21.391056   0.19902163        0.005    4.0916336 0.0099948019    105.53856    63.384636 
   93100    1000.0849   0.26591744    21.411682   0.19902163        0.005    3.9102822  0.010810029    107.16883    62.481188 
   93200    1001.0954    0.2656565     21.43272   0.19902163        0.005    3.7726852 0.0096884564    106.49856    61.578104 
   93300     1002.034    0.2652743    21.451252   0.19902163        0.005     3.859993 0.0093309939     107.2638    60.674463 
   93400    1003.0447   0.26525366    21.470683   0.19902163        0.005    4.6177266  0.010079864    108.82362    59.769816 
   93500    1004.0408   0.26596132    21.489098   0.19902163        0.005    4.0192029 0.0098350971    110.93425    58.863923 
   93600    1005.1023   0.26529071    21.509047   0.19902163        0.005    4.5437925  0.010866515    113.78491    57.956495 
   93700    1006.1768    0.2658988    21.528187   0.19902163        0.005    3.8439789  0.010840734    113.46527    57.049295 
   93800    1007.2266   0.26618873    21.547935   0.19902163        0.005    3.6771634  0.010442311    109.56804    56.144222 
   93900    1008.2653   0.26570672    21.568252   0.19902163        0.005    3.7780275  0.010951273    111.42247    55.238146 
   94000    1009.3358   0.26631468    21.588678   0.19902163        0.005    4.0752294  0.010642616    103.44845    54.336504 
   94100    1010.3865   0.26578027    21.609343   0.19902163        0.005    3.9073018  0.011638845    105.71572    53.433423 
   94200    1011.4787   0.26505468    21.631298   0.19902163        0.005    3.8480066  0.010442278    112.13403    52.526919 
   94300    1012.5532    0.2654518    21.653028   0.19902163        0.005     3.993974  0.011557693     112.6362    51.620205 
   94400    1013.6271    0.2663937    21.675035   0.19902163        0.005     4.157043   0.01060958    110.96897    50.714322 
   94500    1014.6741    0.2661276    21.697157   0.19902163        0.005    3.9049284  0.010299343    110.44376    49.808699 
   94600    1015.7349   0.26449238    21.720862   0.19902163        0.005    4.1053227  0.010379858    111.06349    48.902788 
   94700    1016.7826   0.26549367    21.743188   0.19902163        0.005    4.3162396  0.010703151    111.98533    47.996474 
   94800    1017.7977   0.26467526    21.765149   0.19902163        0.005    4.8666269 0.0098326217    110.55759    47.090821 
   94900    1018.8565    0.2650382    21.787575   0.19902163        0.005    3.8828118  0.010907467    111.53195    46.184745 
   95000    1019.9085   0.26544708     21.81115   0.19902163        0.005    4.4469356  0.010427689    108.74933    45.279896 
   95100    1020.9341   0.26576968    21.833883   0.19902163        0.005    4.8863514 0.0088116039      110.567    44.374238 
   95200    1021.8909   0.26556056    21.855383   0.19902163        0.005    4.0332723  0.010413415    112.23684    43.467904 
   95300    1022.9255   0.26536663    21.876578   0.19902163        0.005    3.7023857   0.01084196    111.96855    42.561708 
   95400    1023.9595   0.26556309    21.897656   0.19902163        0.005    3.8959471  0.010632808    111.65101    41.655661 
   95500    1025.0195   0.26520686    21.919345   0.19902163        0.005     4.538575  0.010416664    114.41765    40.748616 
   95600    1026.0444   0.26494005    21.940173   0.19902163        0.005    4.0630562   0.01064095    111.96052    39.842523 
   95700    1027.0927   0.26597663    21.960642   0.19902163        0.005    4.0926775  0.010377444     109.9295    38.937198 
   95800    1028.1439   0.26582619     21.98174   0.19902163        0.005    3.9508899  0.011111189    110.43574    38.031681 
   95900    1029.2113    0.2654202    22.004457   0.19902163        0.005    4.1076501 0.0097227691    112.78698    37.125357 
   96000    1030.2346   0.26634638     22.02463   0.19902163        0.005    3.7327164  0.010547536    109.08886    36.220327 
   96100    1031.2963   0.26663597    22.045566   0.19902163        0.005    4.2789968  0.010929739    109.59097    35.315102 
   96200    1032.3066   0.26539557    22.066646   0.19902163        0.005    4.2150974  0.010865269    105.98384    34.411088 
   96300    1033.3622    0.2646801    22.088633   0.19902163        0.005    3.8214193   0.01047885    101.54161    33.508579 
   96400    1034.3551   0.26549404    22.108194   0.19902163        0.005    3.9109166 0.0095701982    104.95692    32.604702 
   96500     1035.352   0.26498838    22.127535   0.19902163        0.005     4.248833  0.010571578    111.23766    31.698772 
   96600    1036.3436   0.26622042    22.147564   0.19902163        0.005    4.3082281 0.0099901155    112.98364    30.792368 
   96700    1037.3869    0.2651786    22.168122   0.19902163        0.005    3.8360476  0.011257666    111.56093    29.886393 
   96800    1038.4699   0.26563879    22.189119   0.19902163        0.005    3.7747387   0.01104885    112.55622    28.980176 
   96900     1039.538     0.265429    22.210081   0.19902163        0.005    4.0559242  0.011187452    111.44471    28.074279 
   97000    1040.6155   0.26375335    22.232249   0.19902163        0.005    3.8366246 0.0098831218    109.21452    27.168967 
   97100    1041.6819   0.26524424    22.254085   0.19902163        0.005    3.8958958  0.011811101     110.2237    26.263383 
   97200    1042.7672   0.26515319    22.276511   0.19902163        0.005    4.0764294  0.010168823    111.10356    25.357589 
   97300    1043.8034   0.26476167    22.298004   0.19902163        0.005    3.8052227   0.01060517    104.97102    24.453265 
   97400    1044.8178    0.2654489    22.318954   0.19902163        0.005    3.9552334  0.010879716    104.31498    23.549002 
   97500    1045.8564   0.26408286    22.340685   0.19902163        0.005    4.5984822 0.0092237769    112.19567    22.642901 
   97600    1046.8302   0.26494045    22.360257   0.19902163        0.005    4.0667599   0.01105549    111.81793    21.736905 
   97700     1047.926   0.26529855    22.381969   0.19902163        0.005    3.9815058  0.010491668    110.85148    20.831116 
   97800    1048.9664   0.26412822    22.402827   0.19902163        0.005    4.3425796 0.0095661196    111.01734    19.925304 
   97900    1049.9679   0.26512929    22.422887   0.19902163        0.005    4.8745382 0.0098882892    112.01748     19.01933 
   98000    1051.0261   0.26579022    22.444972   0.19902163        0.005    4.0013417  0.010689444    109.84736    18.113743 
   98100    1052.0807   0.26565286    22.466649   0.19902163        0.005    3.8923855  0.011172979    109.42608    17.208214 
   98200    1053.1371   0.26469398    22.488736   0.19902163        0.005    3.8096681  0.010348388    111.53705    16.302351 
   98300    1054.2147   0.26647087    22.510178   0.19902163        0.005    4.2627032  0.010277765    113.04686      15.3963 
   98400    1055.2909   0.26525218     22.53249   0.19902163        0.005    3.7618454   0.01134571    112.20309    14.490401 
   98500    1056.3642   0.26584039    22.554174   0.19902163        0.005    4.6052534 0.0099376767    110.60257    13.584728 
   98600    1057.3542   0.26616459    22.575392   0.19902163        0.005    4.2062307  0.010587798    113.11182    12.678773 
   98700    1058.3598   0.26530553    22.597089   0.19902163        0.005     4.130656 0.0099860695    113.04914    11.772869 
   98800    1059.3901   0.26545914    22.618147   0.19902163        0.005    4.3439739  0.010495006    112.33874    10.867076 
   98900    1060.4747   0.26618631    22.640447   0.19902163        0.005    3.9286483  0.011015628    111.91502    9.9613525 
   99000    1061.5223   0.26544229    22.662351   0.19902163        0.005    3.9382597  0.010487241    110.18846    9.0557948 
   99100    1062.5953   0.26430563    22.684238   0.19902163        0.005    3.8525739 0.0097560413    113.56229    8.1499882 
   99200    1063.6397   0.26519444    22.706895   0.19902163        0.005    3.9290177  0.010336319    110.86683    7.2444052 
   99300     1064.709   0.26565633    22.729186   0.19902163        0.005    4.4298677  0.010729377    111.33194    6.3388028 
   99400    1065.7719   0.26590263    22.752931   0.19902163        0.005    3.8942767  0.011076594    112.12648    5.4331769 
   99500    1066.8458   0.26535599    22.776264   0.19902163        0.005    4.1370096  0.010461509    112.08273    4.5275804 
   99600    1067.8775   0.26558648    22.798393   0.19902163        0.005    3.9287178  0.010475359    111.96279    3.6220147 
   99700    1068.9454   0.26556948    22.821337   0.19902163        0.005    4.3569121  0.010641397    111.37318    2.7164881 
   99800    1070.0263    0.2658851     22.84287   0.19902163        0.005    3.9754789  0.010517392    112.92724     1.810952 
   99900    1071.0583   0.26607382     22.86393   0.19902163        0.005     4.175061   0.01024887    112.47304   0.90545963 
  100000    1072.0684   0.26618337    22.884896   0.19902163        0.005    4.0778615  0.010540842    112.33179            0 
Loop time of 905.444 on 4 procs for 100000 steps with 182828 atoms

Performance: 100583.617 tau/day, 110.443 timesteps/s
244.7% CPU use with 1 MPI tasks x 4 OpenMP threads

MPI task timing breakdown:
Section |  min time  |  avg time  |  max time  |%varavg| %total
---------------------------------------------------------------
Pair    | 354.89     | 354.89     | 354.89     |   0.0 | 39.20
Neigh   | 13.001     | 13.001     | 13.001     |   0.0 |  1.44
Comm    | 113.35     | 113.35     | 113.35     |   0.0 | 12.52
Output  | 2.9878     | 2.9878     | 2.9878     |   0.0 |  0.33
Modify  | 352.38     | 352.38     | 352.38     |   0.0 | 38.92
Other   |            | 68.83      |            |       |  7.60

Nlocal:    182828 ave 182828 max 182828 min
Histogram: 1 0 0 0 0 0 0 0 0 0
Nghost:    67106 ave 67106 max 67106 min
Histogram: 1 0 0 0 0 0 0 0 0 0
Neighs:    0 ave 0 max 0 min
Histogram: 1 0 0 0 0 0 0 0 0 0

Total # of neighbors = 0
Ave neighs/atom = 0
Neighbor list builds = 28540
Dangerous builds = 0

Please see the log.cite file for references relevant to this simulation

Total wall time: 0:15:43
