#package gpu 1
#suffix gpu
# variable rho equal 0.03

units lj
atom_style atomic

lattice fcc 0.975
Lattice spacing in x,y,z = 1.60085 1.60085 1.60085
region box block 0 60 0 30 0 30
create_box 2 box
Created orthogonal box = (0 0 0) to (96.0513 48.0256 48.0256)
  1 by 1 by 1 MPI processor grid
create_atoms 1 box
Created 216000 atoms
  Time spent = 0.040354 secs
mass 1 4.0
mass 2 0.5


pair_style lj/cut 2.5
pair_coeff 1 1 1.0 1.0 2.5
pair_coeff 2 2 0.5 0.88 2.5
pair_coeff 1 2 0.2 1.0 2.5
#pair_coeff 1 2 1.5 0.8 2.5
pair_modify mix geometric
neigh_modify every 1 delay 0 check yes

variable R equal 12
region cylinder1 cylinder x $(0.5*ly) $(0.5*lz) $R EDGE EDGE units box
region cylinder1 cylinder x 24.012813670346833561 $(0.5*lz) $R EDGE EDGE units box
region cylinder1 cylinder x 24.012813670346833561 24.012813670346833561 $R EDGE EDGE units box
region cylinder1 cylinder x 24.012813670346833561 24.012813670346833561 12 EDGE EDGE units box

group cylinder1 region cylinder1
41820 atoms in group cylinder1
variable V equal PI*v_R*v_R*lx
# variable rho equal 0.1
variable natoms equal $V*${rho}
variable natoms equal 43452.5639148185*${rho}
variable natoms equal 43452.5639148185*0.02
variable natoms_in_cylinder equal count(cylinder1)
variable delete_fraction equal (${natoms_in_cylinder}-${natoms})/${natoms_in_cylinder}
variable delete_fraction equal (41820-${natoms})/${natoms_in_cylinder}
variable delete_fraction equal (41820-869.05127829637)/${natoms_in_cylinder}
variable delete_fraction equal (41820-869.05127829637)/41820
set group cylinder1 type 2
  41820 settings made for type
delete_atoms porosity cylinder1 ${delete_fraction} 12345
delete_atoms porosity cylinder1 0.979219242508456 12345
Deleted 40996 atoms, new total = 175004
#delete_atoms region cylinder1

region cylinder2 cylinder x $(0.5*ly) $(0.5*lz) $(v_R+6) EDGE EDGE units box
region cylinder2 cylinder x 24.012813670346833561 $(0.5*lz) $(v_R+6) EDGE EDGE units box
region cylinder2 cylinder x 24.012813670346833561 24.012813670346833561 $(v_R+6) EDGE EDGE units box
region cylinder2 cylinder x 24.012813670346833561 24.012813670346833561 18 EDGE EDGE units box
region cylinder3 cylinder x $(0.5*ly) $(0.5*lz) $(v_R+11) EDGE EDGE units box
region cylinder3 cylinder x 24.012813670346833561 $(0.5*lz) $(v_R+11) EDGE EDGE units box
region cylinder3 cylinder x 24.012813670346833561 24.012813670346833561 $(v_R+11) EDGE EDGE units box
region cylinder3 cylinder x 24.012813670346833561 24.012813670346833561 23 EDGE EDGE units box
group cylinder2 region cylinder2
54824 atoms in group cylinder2
group cylinder3 region cylinder3
114584 atoms in group cylinder3

group nve region cylinder3
114584 atoms in group nve
group langevin subtract cylinder3 cylinder2
59760 atoms in group langevin
group frozen subtract all cylinder3
60420 atoms in group frozen

region force cylinder x $(0.5*ly) $(0.5*lz) $(v_R-1) EDGE EDGE units box
region force cylinder x 24.012813670346833561 $(0.5*lz) $(v_R-1) EDGE EDGE units box
region force cylinder x 24.012813670346833561 24.012813670346833561 $(v_R-1) EDGE EDGE units box
region force cylinder x 24.012813670346833561 24.012813670346833561 11 EDGE EDGE units box
group inner dynamic all region cylinder1 every 1
dynamic group inner defined
#group gas dynamic all region force every 1
group gas type 2
824 atoms in group gas

fix nve nve nve
fix langevin langevin langevin 0.50 0.50 1.0 12345 zero yes

variable gascount equal count(gas)

variable dP equal 0.001
variable measured_rho equal mass(gas)/(PI*(v_R-1)*(v_R-1)*lx)
variable force equal v_dP/v_measured_rho
variable force equal v_dP/v_rho

velocity all create 0.1 87287
velocity frozen set 0 0 0

compute chunk all chunk/atom bin/cylinder x lower $(lx) $(0.5*ly) $(0.5*lz) 0 $(v_R+5) 30 units box
compute chunk all chunk/atom bin/cylinder x lower 96.051254681387334244 $(0.5*ly) $(0.5*lz) 0 $(v_R+5) 30 units box
compute chunk all chunk/atom bin/cylinder x lower 96.051254681387334244 24.012813670346833561 $(0.5*lz) 0 $(v_R+5) 30 units box
compute chunk all chunk/atom bin/cylinder x lower 96.051254681387334244 24.012813670346833561 24.012813670346833561 0 $(v_R+5) 30 units box
compute chunk all chunk/atom bin/cylinder x lower 96.051254681387334244 24.012813670346833561 24.012813670346833561 0 17 30 units box

compute displacement nve displace/atom
compute mean_displacement nve reduce ave c_displacement[4]

compute vmax all reduce max vx
variable volume equal count(gas)/v_V

thermo_style custom step time temp c_mean_displacement v_volume v_force c_vmax dt spcpu cpuremain
thermo 100

compute keAtom all ke/atom
dump dump all custom 1000 trajectory_l.bin id type x y z c_keAtom

fix flow gas addforce v_force 0.0 0.0
run 5000
No /omp style for force computation currently active
Per MPI rank memory allocation (min/avg/max) = 85.74 | 85.74 | 85.74 Mbytes
Step Time Temp c_mean_displacement v_volume v_force c_vmax Dt S/CPU CPULeft 
       0            0  0.065545144            0  0.018963208         0.05   0.77453518        0.005            0            0 
     100          0.5  0.098202797  0.058760057  0.018963208         0.05     1.504224        0.005    117.91521    41.555285 
     200            1   0.14541866  0.089887041  0.018963208         0.05    1.4463158        0.005    114.37631    41.336998 
     300          1.5   0.16971678    0.1226583  0.018963208         0.05    1.9260641        0.005    117.46892    40.320735 
     400            2   0.18731423   0.14866587  0.018963208         0.05    2.1636901        0.005    117.95818    39.346353 
     500          2.5   0.19918116   0.16840829  0.018963208         0.05    1.8884782        0.005    118.21254    38.406203 
     600            3   0.20728445   0.18111071  0.018963208         0.05    1.8029301        0.005    118.68563    37.472731 
     700          3.5   0.21289556   0.18530649  0.018963208         0.05    1.9141425        0.005    118.45813    36.575167 
     800            4   0.21796348   0.18130988  0.018963208         0.05    2.0152989        0.005     117.9543    35.709891 
     900          4.5   0.22551812   0.17127809  0.018963208         0.05    1.9926285        0.005    117.57692    34.860888 
    1000            5   0.23061885   0.15808726  0.018963208         0.05    2.2564296        0.005    115.49825     34.07282 
    1100          5.5   0.23586419   0.14460177  0.018963208         0.05     2.017216        0.005    115.27351    33.276597 
    1200            6   0.23970292    0.1338813  0.018963208         0.05    1.8696817        0.005    117.52385    32.415894 
    1300          6.5   0.24179671   0.12688117  0.018963208         0.05    2.1561397        0.005    116.40048    31.580072 
    1400            7   0.24470077   0.12523638  0.018963208         0.05    2.4793146        0.005    116.81658    30.733056 
    1500          7.5   0.24913806   0.12714553  0.018963208         0.05    2.1492041        0.005    117.20828     29.87816 
    1600            8   0.25217322   0.13059342  0.018963208         0.05    2.1789304        0.005    117.06176    29.025749 
    1700          8.5   0.25628801     0.134279  0.018963208         0.05    2.4646584        0.005    116.14469    28.186212 
    1800            9   0.26085733   0.13799015  0.018963208         0.05    2.4557391        0.005    115.04078    27.358981 
    1900          9.5   0.26481557   0.14061682  0.018963208         0.05    2.4585005        0.005     116.2485    26.512593 
    2000           10   0.26800843   0.14317479  0.018963208         0.05    2.5085005        0.005    114.07063    25.689456 
    2100         10.5   0.27171393   0.14572417  0.018963208         0.05     2.630022        0.005    114.92547    24.852217 
    2200           11   0.27504197    0.1491475  0.018963208         0.05    2.7389588        0.005    116.83731    23.993867 
    2300         11.5   0.27658192   0.15457976  0.018963208         0.05    2.7348268        0.005    116.58435    23.137911 
    2400           12   0.27997027    0.1604223  0.018963208         0.05     2.712101        0.005    114.76431    22.296542 
    2500         12.5   0.28096084   0.16674407  0.018963208         0.05    2.8258724        0.005    117.11209    21.435306 
    2600           13   0.28383936   0.17247925  0.018963208         0.05     2.813748        0.005     115.1328    20.588186 
    2700         13.5   0.28510524   0.17723973  0.018963208         0.05    2.9965505        0.005    116.05358    19.733607 
    2800           14   0.28618602   0.18060791  0.018963208         0.05    3.1591631        0.005    116.27515    18.877232 
    2900         14.5   0.28700299   0.18270537  0.018963208         0.05    2.8373081        0.005    115.14927    18.026694 
    3000           15   0.28907802   0.18360972  0.018963208         0.05      3.27969        0.005    114.21731    17.179687 
    3100         15.5   0.29162256   0.18447265  0.018963208         0.05     2.997404        0.005    114.97887    16.327285 
    3200           16   0.29252316   0.18556835  0.018963208         0.05    3.4779813        0.005    114.12805    15.477448 
    3300         16.5    0.2935532   0.18635108  0.018963208         0.05    3.8234497        0.005    115.23431     14.62168 
    3400           17   0.29496053   0.18753201  0.018963208         0.05    3.0212536        0.005    114.55068    13.767641 
    3500         17.5   0.29614166   0.19009479  0.018963208         0.05    3.2466185        0.005    115.14636    12.910584 
    3600           18   0.29796039   0.19266797  0.018963208         0.05     3.533806        0.005    113.80606    12.056872 
    3700         18.5   0.29789467   0.19603983  0.018963208         0.05    3.4915477        0.005    113.97906    11.201341 
    3800           19   0.29938356   0.19998669  0.018963208         0.05    3.6275087        0.005    112.97213     10.34713 
    3900         19.5   0.30098895   0.20433554  0.018963208         0.05    3.6064548        0.005    114.54886    9.4878957 
    4000           20   0.30218237   0.20855291  0.018963208         0.05    3.5964668        0.005    113.59068    8.6298143 
    4100         20.5   0.30368833   0.21265943  0.018963208         0.05     3.532455        0.005    114.17375    7.7696592 
    4200           21   0.30400116   0.21739371  0.018963208         0.05    4.2385866        0.005    113.30123    6.9100413 
    4300         21.5     0.304638   0.22202952  0.018963208         0.05    3.6518002        0.005    114.73587     6.047558 
    4400           22   0.30685764   0.22692816  0.018963208         0.05    3.5359436        0.005    113.18169    5.1862936 
    4500         22.5     0.308661   0.23185934  0.018963208         0.05    3.5815924        0.005    113.93271    4.3233922 
    4600           23   0.30779073   0.23748624  0.018963208         0.05    4.0229717        0.005    114.51265    3.4594606 
    4700         23.5    0.3094227   0.24202363  0.018963208         0.05    3.9571987        0.005    113.87694    2.5954428 
    4800           24   0.30963677    0.2468684  0.018963208         0.05    3.9316059        0.005    114.26233    1.7307132 
    4900         24.5   0.31052244   0.25175465  0.018963208         0.05    3.7609211        0.005    114.34532    0.8655441 
    5000           25   0.31234297   0.25621066  0.018963208         0.05    3.7675241        0.005    112.24275            0 
Loop time of 43.3026 on 4 procs for 5000 steps with 175004 atoms

Performance: 49881.530 tau/day, 115.467 timesteps/s
238.8% CPU use with 1 MPI tasks x 4 OpenMP threads

MPI task timing breakdown:
Section |  min time  |  avg time  |  max time  |%varavg| %total
---------------------------------------------------------------
Pair    | 14.899     | 14.899     | 14.899     |   0.0 | 34.41
Neigh   | 0.21151    | 0.21151    | 0.21151    |   0.0 |  0.49
Comm    | 3.5504     | 3.5504     | 3.5504     |   0.0 |  8.20
Output  | 0.13709    | 0.13709    | 0.13709    |   0.0 |  0.32
Modify  | 21.77      | 21.77      | 21.77      |   0.0 | 50.27
Other   |            | 2.735      |            |       |  6.32

Nlocal:    175004 ave 175004 max 175004 min
Histogram: 1 0 0 0 0 0 0 0 0 0
Nghost:    66654 ave 66654 max 66654 min
Histogram: 1 0 0 0 0 0 0 0 0 0
Neighs:    0 ave 0 max 0 min
Histogram: 1 0 0 0 0 0 0 0 0 0

Total # of neighbors = 0
Ave neighs/atom = 0
Neighbor list builds = 503
Dangerous builds = 0

reset_timestep 0
fix vx all ave/chunk 10 100000 1000000 chunk vx ave running file velocity_l.txt

fix dt all dt/reset 10 NULL NULL 0.05 units box

run 1000000
No /omp style for force computation currently active
Per MPI rank memory allocation (min/avg/max) = 95.11 | 95.11 | 95.11 Mbytes
Step Time Temp c_mean_displacement v_volume v_force c_vmax Dt S/CPU CPULeft 
       0           25   0.31234297   0.25621066  0.018963208         0.05    3.7675241  0.012267276            0            0 
     100    26.200414   0.31263054   0.26561963  0.018963208         0.05    3.8807799  0.011638059    95.476073    10472.781 
     200    27.347929   0.31220047   0.27454325  0.018963208         0.05    4.1316837  0.010986174    95.608766    10464.472 
     300    28.380516   0.31491989   0.28274469  0.018963208         0.05    3.9988498 0.0099090986    96.778171    10418.886 
     400    29.374361   0.31553217   0.29144244  0.018963208         0.05    4.1144167  0.010050739    98.755963    10343.863 
     500    30.380179   0.31724036   0.30088825  0.018963208         0.05    4.2078244  0.010074266    97.205059     10330.74 
     600    31.358042   0.31785948   0.31043786  0.018963208         0.05    4.2627272 0.0096101461    98.243711    10303.532 
     700    32.305801   0.32015152   0.31989626  0.018963208         0.05    4.3467208 0.0094844816    96.571144    10308.973 
     800     33.24895   0.32052565   0.32925734  0.018963208         0.05     4.434663 0.0093597946    95.621125    10325.646 
     900    34.175819   0.32094755   0.33771858  0.018963208         0.05    4.6716133 0.0092727272    97.441657    10316.691 
    1000     35.09889   0.32208248   0.34494614  0.018963208         0.05    4.6353585  0.009114095    94.543709    10340.747 
    1100    36.052352   0.32080478   0.35407545  0.018963208         0.05    4.7305362 0.0099040685    97.377227    10332.287 
    1200    37.034435   0.32184041   0.36318731  0.018963208         0.05    4.9387645 0.0095950676    97.961228    10319.971 
    1300    38.001246    0.3222044   0.37249644  0.018963208         0.05    5.0241932 0.0090612084    98.068834    10308.531 
    1400    38.913089   0.32307475   0.38176476  0.018963208         0.05    5.1164641  0.009155805    97.374786    10303.766 
    1500    39.828616    0.3243131   0.39042747  0.018963208         0.05    5.2221557 0.0090860911    97.127918    10301.236 
    1600    40.724857   0.32420646   0.39837216  0.018963208         0.05    5.4898063 0.0088491937    95.991863    10306.496 
    1700    41.674694   0.32435002   0.40732339  0.018963208         0.05    4.9988428 0.0092247116    97.388623    10302.242 
    1800    42.586829   0.32623588   0.41626227  0.018963208         0.05    5.1287749 0.0090218284     94.97857    10312.794 
    1900    43.468918   0.32703432   0.42460973  0.018963208         0.05    5.6681075 0.0087558296    96.684408    10312.367 
    2000    44.341528    0.3251847   0.43254717  0.018963208         0.05    5.7327978 0.0086601436    95.812428    10316.577 
    2100    45.201329   0.32573084   0.44008447  0.018963208         0.05    5.8187779 0.0085339406    95.564197    10321.574 
    2200     46.05071   0.32517335   0.44732917  0.018963208         0.05    5.3881134 0.0086335989     96.26649     10322.56 
    2300    46.918973   0.32620888   0.45458427  0.018963208         0.05    5.6572161 0.0087931077    97.517687    10317.588 
    2400    47.781244   0.32629369   0.46198062  0.018963208         0.05    5.4293052 0.0085950846    97.441679    10313.277 
    2500    48.627537   0.32604913   0.46970478  0.018963208         0.05    5.5302222 0.0082719783    95.175449    10318.979 
    2600    49.459021    0.3272544   0.47704981  0.018963208         0.05    5.7912823 0.0085461078    95.518103    10322.716 
    2700     50.33206   0.32668417   0.48462638  0.018963208         0.05    5.0512237 0.0089497164    96.576925    10321.859 
    2800    51.214902   0.32819779   0.49232347  0.018963208         0.05    5.3750923 0.0089014379    95.331699    10325.806 
    2900    52.118149   0.32754427   0.49966555  0.018963208         0.05    5.3651032 0.0089791243    95.822803     10327.56 
    3000    53.013696   0.32819405   0.50684384  0.018963208         0.05    5.4536832 0.0088398989    94.769312    10332.983 
    3100    53.893254   0.32723765   0.51384379  0.018963208         0.05    5.6403513 0.0088088753    97.070215    10329.945 
    3200     54.70853   0.32866597    0.5206163  0.018963208         0.05    6.3242055 0.0074512293    96.934915     10327.48 
    3300    55.450663   0.32841785   0.52697369  0.018963208         0.05    6.3896837 0.0073794698    95.803696     10328.78 
    3400    56.185229   0.32998511   0.53302033  0.018963208         0.05    6.4631403 0.0073047388     94.60713    10333.813 
    3500    56.906245   0.32796157   0.53892058  0.018963208         0.05    6.6681075 0.0072669548     95.49692    10335.694 
    3600    57.636464   0.32833782   0.54447038  0.018963208         0.05    6.5868238 0.0072754739    96.553715     10334.24 
    3700    58.359547    0.3278468   0.54987063  0.018963208         0.05    6.6771631 0.0071877504    95.986525    10334.456 
    3800    59.075142   0.32819511   0.55565844  0.018963208         0.05    6.7487225 0.0071174413     95.68635    10335.463 
    3900    59.783372   0.32846178   0.56170865  0.018963208         0.05    6.8171419 0.0070220467    95.105764    10337.994 
    4000    60.480173   0.32929967   0.56665649  0.018963208         0.05     7.120822 0.0067731069    95.074742    10340.432 
    4100    61.173249   0.32975643   0.57179364  0.018963208         0.05    5.4246417 0.0068509497    96.667784    10338.489 
    4200    61.862624   0.32917278   0.57738465  0.018963208         0.05    5.0371544 0.0068483477    96.902689    10335.994 
    4300    62.541409   0.32816474   0.58322635  0.018963208         0.05    5.7887696 0.0067068504    96.793515    10333.837 
    4400    63.254745   0.32969586   0.58833241  0.018963208         0.05    5.4693414 0.0071683864    97.774087    10329.387 
    4500    63.969814   0.33062836   0.59346918  0.018963208         0.05    5.5392897 0.0071303603    95.792602    10329.769 
    4600    64.748608   0.32949364   0.59920732  0.018963208         0.05    5.6166802 0.0078014757      95.9366    10329.751 
    4700    65.539569    0.3287922   0.60465994  0.018963208         0.05    5.7296481 0.0079092861    96.217133    10329.045 
    4800    66.318338   0.33006011   0.61033558  0.018963208         0.05    5.3369791 0.0076759802      97.4923    10325.507 
    4900    67.142692   0.32976825   0.61691825  0.018963208         0.05    5.8830655 0.0082887412    96.485593    10324.244 
    5000    67.938343   0.33050798   0.62293273  0.018963208         0.05    5.6558873 0.0076551471    95.710172    10324.662 
    5100    68.700389   0.33020035   0.62835154  0.018963208         0.05     5.732092 0.0075784531       95.776    10324.883 
    5200    69.454858   0.33003752   0.63392887  0.018963208         0.05    5.8075388 0.0075037815    96.249723    10324.071 
    5300    70.201947   0.32875999   0.63887257  0.018963208         0.05    5.8822478 0.0074310527    94.921158     10325.98 
    5400    70.941745   0.32957781   0.64427545  0.018963208         0.05    5.9776494 0.0073507283     95.44444    10326.716 
    5500    71.676495   0.33011084   0.64966215  0.018963208         0.05    6.0391275 0.0073189867    96.588023    10325.144 
    5600    72.461107   0.33024971   0.65555818  0.018963208         0.05    5.4403971 0.0085021778    96.981065    10322.845 
    5700    73.298747    0.3298809   0.66205578  0.018963208         0.05    5.5521859 0.0081259238    96.900069    10320.742 
    5800    74.152655   0.33022666    0.6688277  0.018963208         0.05    5.6674108 0.0085616728     96.85109    10318.765 
    5900    75.003409   0.33061859   0.67508765  0.018963208         0.05    5.7524862 0.0084422702    95.489006    10319.302 
    6000    75.822059    0.3302552   0.68158196  0.018963208         0.05    5.5833872 0.0078356101    96.579171    10317.827 
    6100    76.610649   0.33099606   0.68707213  0.018963208         0.05    5.6389233 0.0078534339    95.577067    10318.136 
    6200    77.390687   0.33030733    0.6925732  0.018963208         0.05    5.7162971 0.0076237109    96.259641    10317.212 
    6300    78.220227   0.32959584    0.6987338  0.018963208         0.05    5.5941443 0.0083510777    97.107072    10314.854 
    6400    79.068762   0.32983112   0.70462373  0.018963208         0.05     5.632782 0.0084894867    96.645822      10313.3 
    6500     79.91061   0.33035283   0.71079569  0.018963208         0.05    5.7247534 0.0084328324    96.892459    10311.361 
    6600    80.753615   0.33118537   0.71687721  0.018963208         0.05    5.8119734 0.0084599158    96.777233    10309.633 
    6700     81.58334   0.33115233   0.72350655  0.018963208         0.05    6.0559992 0.0082050219    96.508038    10308.354 
    6800    82.388737   0.33134358   0.72966852  0.018963208         0.05    6.1261299 0.0079729952    96.963398    10306.371 
    6900    83.193003    0.3307988   0.73537445  0.018963208         0.05    6.2020505 0.0080304974    97.305795    10303.893 
    7000    83.990927   0.33087666   0.74144311  0.018963208         0.05    6.0941775 0.0079755544    94.848048    10305.234 
    7100    84.783553     0.330344   0.74749009  0.018963208         0.05    6.1610041 0.0077674963    95.389913     10305.67 
    7200    85.576119   0.33108504   0.75429055  0.018963208         0.05    6.2643085 0.0078701404    97.346242    10303.161 
    7300    86.364263   0.33148185   0.75968605  0.018963208         0.05    5.3821994 0.0080808155    96.393437    10302.072 
    7400    87.226866   0.33155798   0.76546091  0.018963208         0.05    4.8233645  0.008942309    97.134058    10299.924 
    7500    88.134749   0.32964526   0.77242718  0.018963208         0.05    5.1898446 0.0084963006    96.711606    10298.401 
    7600    89.006707   0.33049307   0.77862919  0.018963208         0.05     5.233492 0.0088056363    97.549077    10295.731 
    7700    89.882199   0.32971932   0.78414313  0.018963208         0.05    5.2610946 0.0086462421     96.18011    10294.985 
    7800    90.726943   0.32922713   0.78983709  0.018963208         0.05    5.5268951 0.0080357392    96.030303    10294.437 
    7900    91.605684   0.33027279   0.79591896  0.018963208         0.05    5.6162007 0.0088386225    96.171884    10293.684 
    8000    92.482779    0.3315588   0.80243712  0.018963208         0.05    5.7183849 0.0086796775     94.01632    10295.881 
    8100    93.333457   0.32988376   0.80904199  0.018963208         0.05    5.9293218 0.0082160162    96.598011    10294.516 
    8200    94.139499   0.33030924   0.81499646  0.018963208         0.05    6.0626303 0.0077724758     96.41278    10293.399 
    8300    94.926349   0.33082394   0.82031903  0.018963208         0.05    5.8046471  0.008531986    98.002222    10290.274 
    8400    95.776112   0.33133826    0.8262844  0.018963208         0.05      5.51403 0.0084009859    96.955598      10288.5 
    8500    96.609644   0.33177759   0.83214092  0.018963208         0.05    4.9712821 0.0087635599    97.179654    10286.466 
    8600    97.481186   0.33195661   0.83764674  0.018963208         0.05     5.034321 0.0085058505     97.22518      10284.4 
    8700    98.323892   0.33167754   0.84319355  0.018963208         0.05     5.117424 0.0082706028    96.866747    10282.791 
    8800    99.181452   0.33130949   0.84898472  0.018963208         0.05    5.7950873 0.0083444011    98.097597    10279.736 
    8900    100.01942   0.33061006   0.85522286  0.018963208         0.05    5.3930041 0.0083598424     98.29556    10276.498 
    9000    100.86217   0.33088958   0.86127972  0.018963208         0.05    5.3445313  0.008558608    98.049118    10273.592 
    9100    101.69314   0.33031449   0.86765552  0.018963208         0.05    5.5649886 0.0085021483    98.076424    10270.696 
    9200    102.53994   0.33095812   0.87372432  0.018963208         0.05    5.5565689 0.0084730276     97.64348    10268.327 
    9300    103.26644   0.33155597   0.87894835  0.018963208         0.05    5.5928319 0.0069713849    96.662816    10267.095 
    9400    103.96074   0.33103409   0.88378264  0.018963208         0.05    5.7392625 0.0068713482    96.037295    10266.576 
    9500    104.66268   0.33183516   0.88874494  0.018963208         0.05    5.7837384 0.0071128634    98.060374    10263.807 
    9600    105.37373   0.33123839   0.89387158  0.018963208         0.05    5.8550651 0.0070730856    97.087179    10262.129 
    9700    106.17479   0.33198284   0.89965735  0.018963208         0.05    5.9594833 0.0083701681    98.388114    10259.073 
    9800    107.00396   0.33094556    0.9061148  0.018963208         0.05    6.0389048 0.0081586837    95.801223    10258.833 
    9900    107.82055   0.33038483   0.91175589  0.018963208         0.05    6.1205633 0.0081563751    96.695062    10257.611 
   10000    108.63137   0.33123218   0.91755574  0.018963208         0.05    6.2016452 0.0080500641     95.47277    10257.704 
   10100    109.43173   0.33056785   0.92337541  0.018963208         0.05    6.2826904 0.0079463523    94.679036    10258.634 
   10200    110.22071   0.33070201     0.928962  0.018963208         0.05    6.1485119 0.0078865565     96.89322    10257.184 
   10300    111.01898   0.33096028   0.93526578  0.018963208         0.05    5.3411514 0.0082234283    96.528272    10256.117 
   10400    111.83731   0.32990634   0.94189259  0.018963208         0.05    5.5723856 0.0081321847    96.226206     10255.36 
   10500    112.64634   0.33054033   0.94718154  0.018963208         0.05    5.4517273 0.0080397522    96.006959    10254.821 
   10600    113.45783    0.3316765   0.95235672  0.018963208         0.05    5.4721495 0.0087896652    96.604263    10253.671 
   10700    114.33698   0.33034505   0.95829175  0.018963208         0.05    5.5656973  0.008705655    96.009112    10253.117 
   10800      115.177   0.33162241   0.96456076  0.018963208         0.05    6.0141151 0.0082855047    98.039309    10250.578 
   10900    115.99601   0.33093055    0.9705621  0.018963208         0.05    6.1385337 0.0081148217    96.571055    10249.475 
   11000    116.80034   0.33069388   0.97623921  0.018963208         0.05    6.0114651  0.008067605    97.204023    10247.766 
   11100    117.63593   0.33124704   0.98113746  0.018963208         0.05    5.9093175 0.0083631552    95.437143    10247.766 
   11200    118.47534   0.33017229   0.98751529  0.018963208         0.05    5.5212786 0.0083685033    97.893711    10245.427 
   11300    119.35179   0.33010822   0.99391029  0.018963208         0.05    5.6100562 0.0088086631    95.604778     10245.25 
   11400    120.22976   0.33054148    1.0000024  0.018963208         0.05    5.6377869  0.008736786    97.079629    10243.681 
   11500    121.09017   0.33058548    1.0062149  0.018963208         0.05    5.7303294 0.0085444887    95.524868    10243.561 
   11600    121.92603   0.33132425    1.0119974  0.018963208         0.05    6.0634673 0.0080015853    96.576369    10242.455 
   11700    122.73388    0.3322461     1.017358  0.018963208         0.05     5.873393 0.0080724547    97.817959    10240.239 
   11800    123.59841    0.3316167    1.0230407  0.018963208         0.05    4.9032378 0.0093420876    96.595497    10239.128 
   11900    124.52054   0.33064253    1.0297089  0.018963208         0.05    4.9234845 0.0090014362    97.171527    10237.508 
   12000    125.46003   0.32990654    1.0361695  0.018963208         0.05    5.0175608 0.0097436061    95.730968    10237.173 
   12100    126.33783   0.33024905    1.0414197  0.018963208         0.05    5.1465288 0.0086040525     99.13899    10233.894 
   12200    127.18743   0.33069149    1.0468408  0.018963208         0.05    5.2418995 0.0083496166    96.433972    10232.943 
   12300    128.02328   0.33031903    1.0526705  0.018963208         0.05    5.3087185 0.0083172941    96.395475    10232.025 
   12400     128.8493   0.33069264    1.0579292  0.018963208         0.05    5.4611369 0.0082654537    96.393814    10231.106 
   12500    129.66025   0.32957249    1.0630338  0.018963208         0.05    5.8460582 0.0079006908    96.439271    10230.146 
   12600    130.47175   0.33034461    1.0676907  0.018963208         0.05    5.4870709 0.0090186247    98.268408    10227.673 
   12700    131.38322    0.3289184    1.0732644  0.018963208         0.05    5.3135548 0.0091256996    99.382635    10224.335 
   12800    132.28966   0.33033662    1.0786549  0.018963208         0.05    5.3982308 0.0091848003    97.848606    10222.251 
   12900    133.20603   0.33066094     1.083734  0.018963208         0.05     5.488793 0.0090990066    97.407214    10220.537 
   13000    134.10769   0.33027073    1.0891749  0.018963208         0.05    5.5784768 0.0087949209    95.437686    10220.443 
   13100    134.97245   0.32950004    1.0949806  0.018963208         0.05    5.7420305 0.0085846335    96.159405    10219.741 
   13200     135.8255   0.32963545    1.1010464  0.018963208         0.05    5.8503525 0.0083720473    96.373924    10218.862 
   13300    136.63471   0.33017172    1.1066108  0.018963208         0.05    5.9152012 0.0077888895    96.362787    10217.989 
   13400    137.45988   0.32991657    1.1119116  0.018963208         0.05    4.9651644 0.0089914158    99.042259    10215.046 
   13500    138.34688   0.33179868    1.1181122  0.018963208         0.05    4.5637219 0.0089106018    97.911833    10212.984 
   13600    139.23547   0.33031301    1.1237983  0.018963208         0.05    4.6622368 0.0088699609    95.793893    10212.575 
   13700    140.11771   0.33044816    1.1300842  0.018963208         0.05    5.5442781 0.0088091285    96.834387    10211.349 
   13800    140.98744   0.33098876    1.1355933  0.018963208         0.05    4.6421429 0.0092659594    98.425494    10208.933 
   13900    141.92103   0.33149638    1.1421335  0.018963208         0.05     5.037591 0.0094175519     97.84468    10206.965 
   14000    142.85055   0.33034356    1.1479038  0.018963208         0.05    5.1466456 0.0093016325    95.862553    10206.498 
   14100    143.77162   0.33140375    1.1541806  0.018963208         0.05     5.243038 0.0091377122    94.764109    10206.869 
   14200    144.67807   0.33072909    1.1598414  0.018963208         0.05    5.3442957 0.0083164429    96.282334    10206.065 
   14300     145.5103   0.33094675     1.164545  0.018963208         0.05    5.5270314 0.0083975645    97.281849    10204.522 
   14400    146.35807   0.33063672    1.1692878  0.018963208         0.05    5.0313958 0.0084948449    97.339329    10202.944 
   14500    147.22014   0.33026506    1.1742966  0.018963208         0.05    5.1747265 0.0087445972     97.06552    10201.571 
   14600    148.08434   0.33059326    1.1796202  0.018963208         0.05    5.3957254 0.0086219044    97.139817     10200.15 
   14700    148.94139   0.33088597     1.184775  0.018963208         0.05    5.4815874 0.0085048885    94.510262    10200.654 
   14800    149.77742    0.3313156    1.1897376  0.018963208         0.05    5.9775903 0.0082850438    97.086909    10199.267 
   14900    150.60604    0.3316452    1.1943002  0.018963208         0.05    5.8848026 0.0082852485    94.005742    10200.117 
   15000    151.42588   0.33074452    1.1999118  0.018963208         0.05    5.8525355 0.0083625346    95.649015    10199.742 
   15100    152.25078   0.33009778    1.2049118  0.018963208         0.05    5.9157513 0.0082484457    95.368787    10199.557 
   15200    153.06472   0.33038793     1.209834  0.018963208         0.05    6.1787553 0.0079876999    97.095585    10198.154 
   15300     153.8618   0.33134389    1.2149154  0.018963208         0.05    6.2515519 0.0079118186    97.598311    10196.414 
   15400    154.64738   0.33068958    1.2203609  0.018963208         0.05    6.3240836 0.0078055124    96.380789     10195.51 
   15500    155.42376     0.331478    1.2251364  0.018963208         0.05    6.4017206  0.007713206    96.791102    10194.326 
   15600    156.19069   0.32964428    1.2303716  0.018963208         0.05    6.5825891 0.0075032947    96.788735    10193.145 
   15700    156.97063   0.32902791    1.2351282  0.018963208         0.05    6.0979173 0.0081653651    97.750184    10191.329 
   15800    157.82691   0.32907275    1.2407366  0.018963208         0.05    5.6350828 0.0087373435    99.514658    10188.393 
   15900    158.62229   0.32979617    1.2460824  0.018963208         0.05    5.9973982 0.0073418668    97.542521    10186.739 
   16000    159.34688   0.33028509    1.2506372  0.018963208         0.05    5.9184378 0.0073236244    96.409412    10185.833 
   16100    160.07634   0.32952504    1.2551105  0.018963208         0.05    5.9919891  0.007255273    95.155627    10185.762 
   16200    160.79217   0.33102968     1.260539  0.018963208         0.05    6.2937384 0.0071848155    97.055907    10184.428 
   16300    161.50821   0.33018131    1.2646818  0.018963208         0.05    6.3080906 0.0071489931    96.241396    10183.625 
   16400    162.22878   0.33120753    1.2688499  0.018963208         0.05    6.1875557  0.007213484    96.599502    10182.587 
   16500    162.99614   0.33090193    1.2733588  0.018963208         0.05    5.1961138 0.0089861716    97.954135    10180.697 
   16600    163.87247   0.32955896     1.277835  0.018963208         0.05    4.9857787  0.008487316    96.533204    10179.707 
   16700    164.73113   0.33105258    1.2823674  0.018963208         0.05    4.9967045 0.0085978777    97.196747      10178.3 
   16800    165.58707   0.32920371    1.2874934  0.018963208         0.05    5.0765569  0.008506461    96.017574    10177.637 
   16900    166.43379   0.33053115    1.2927682  0.018963208         0.05    5.3555255 0.0084380306     96.77375    10176.496 
   17000    167.27398   0.33040076    1.2984485  0.018963208         0.05     5.184122  0.008334586     94.00414    10177.117 
   17100    168.11849   0.33006617    1.3036505  0.018963208         0.05     5.275734 0.0091169244    97.953655    10175.253 
   17200    169.02668   0.33053763    1.3093225  0.018963208         0.05     5.373586 0.0090662314    95.228758    10175.068 
   17300    169.91472   0.33071747    1.3151037  0.018963208         0.05    5.5258427 0.0088954657    96.688598    10173.972 
   17400    170.78777   0.33005132      1.32143  0.018963208         0.05    5.7801214 0.0085911164    96.048203    10173.266 
   17500    171.64081   0.33037011    1.3271689  0.018963208         0.05    5.8881813 0.0084462238     95.43495    10172.932 
   17600    172.48189   0.33014018    1.3331264  0.018963208         0.05    5.9564681 0.0083460577    94.932502      10172.9 
   17700    173.29803   0.33110964    1.3376604  0.018963208         0.05    5.8543123  0.008487083    96.800752    10171.727 
   17800    174.14638   0.32955081    1.3430692  0.018963208         0.05    5.0583077 0.0084603395    96.835415    10170.536 
   17900    174.97889   0.32954358    1.3478648  0.018963208         0.05    4.8877791 0.0080673821    97.117078    10169.182 
   18000    175.83301   0.32857212    1.3532994  0.018963208         0.05    4.9420782 0.0084028086    95.048715    10169.055 
   18100     176.7278   0.33073259     1.359616  0.018963208         0.05    5.0266762 0.0089901439    97.862305    10167.276 
   18200    177.62317    0.3298412    1.3655101  0.018963208         0.05    5.1089487 0.0089040903    95.553137    10166.837 
   18300    178.50581   0.33004712    1.3712122  0.018963208         0.05    5.1996589 0.0088434853    97.041221    10165.532 
   18400    179.38407   0.33059831    1.3771828  0.018963208         0.05    5.2663874 0.0087238065    95.546759    10165.088 
   18500    180.24682   0.32983547    1.3830447  0.018963208         0.05    5.3655786  0.009174365    97.050427    10163.779 
   18600    181.15574   0.32901334    1.3905468  0.018963208         0.05    5.4904873 0.0089336696    96.133618     10162.99 
   18700    182.04231   0.33015525    1.3963713  0.018963208         0.05    5.6142848 0.0088165784    96.551648    10161.963 
   18800      182.918   0.32983938    1.4025337  0.018963208         0.05    5.7206456 0.0086229555    95.940484     10161.28 
   18900    183.75031   0.33038675    1.4088029  0.018963208         0.05    6.0521133 0.0080116466    97.942904    10159.486 
   19000    184.54636   0.33260338    1.4148639  0.018963208         0.05    6.0916633 0.0079068217    95.679846    10158.948 
   19100    185.33025   0.32924043    1.4210872  0.018963208         0.05    6.2232841 0.0077995811    96.258448    10158.082 
   19200    186.10712   0.33039215     1.426561  0.018963208         0.05    6.2855436 0.0077213374    96.432952    10157.118 
   19300    186.87341    0.3305459    1.4310014  0.018963208         0.05    6.3400876 0.0074924972     95.45517    10156.693 
   19400    187.64211    0.3314191    1.4366681  0.018963208         0.05    6.2052426 0.0080372493    96.504152    10155.686 
   19500    188.44123   0.33036827    1.4420004  0.018963208         0.05    6.2851544 0.0079355691    96.406908    10154.731 
   19600    189.23017   0.33057118     1.448203  0.018963208         0.05    6.3837363 0.0078098216    95.580094    10154.225 
   19700    190.01969   0.33033226    1.4542206  0.018963208         0.05    6.3618256  0.007768433    98.532156    10152.153 
   19800    190.80888   0.33051328    1.4600295  0.018963208         0.05     6.171149 0.0077967757    98.158365    10150.283 
   19900    191.59229   0.32898226    1.4655311  0.018963208         0.05     6.249494 0.0078570637    96.579349    10149.241 
   20000    192.37376   0.33021292    1.4706065  0.018963208         0.05    6.3276405 0.0077634188    95.056298    10149.013 
   20100    193.14544    0.3294747    1.4762867  0.018963208         0.05    6.4072359 0.0076707764    94.433978    10149.115 
   20200    193.90914   0.32998223    1.4815553  0.018963208         0.05    6.2077624  0.007823035    96.138312    10148.294 
   20300    194.68762   0.33062756    1.4868877  0.018963208         0.05    6.2650958 0.0077339641     97.38037    10146.832 
   20400    195.46627   0.33073963    1.4917485  0.018963208         0.05    6.2537993 0.0077518681    95.572776    10146.306 
   20500     196.2356   0.33061926    1.4967119  0.018963208         0.05    6.3471542 0.0075778017    95.485094     10145.82 
   20600    197.02776   0.33050538    1.5029311  0.018963208         0.05    5.4103114 0.0086202498    97.363484    10144.369 
   20700    197.88387   0.33098779    1.5082852  0.018963208         0.05    5.5111153 0.0084877494     95.65929    10143.788 
   20800    198.71215    0.3324113    1.5133515  0.018963208         0.05    5.2401924 0.0087188545    97.135745    10142.454 
   20900    199.57319     0.330773    1.5186964  0.018963208         0.05    5.4319598 0.0086351771    96.891899    10141.244 
   21000    200.43383   0.33049618    1.5249568  0.018963208         0.05    5.4221653 0.0084819312    94.378347    10141.318 
   21100    201.28001   0.33121723    1.5305601  0.018963208         0.05     5.646495  0.008191386    96.615746    10140.242 
   21200    202.12172   0.33138279    1.5361422  0.018963208         0.05    5.7237656 0.0084490023    95.846868     10139.55 
   21300    202.96143   0.33168643    1.5421326  0.018963208         0.05    5.8085126 0.0083333919    95.198477    10139.181 
   21400    203.89754   0.33211007    1.5493448  0.018963208         0.05    4.8691667 0.0099299244    96.061578    10138.375 
   21500    204.84076   0.33200528    1.5557187  0.018963208         0.05    4.9859727 0.0093530585    96.344769    10137.426 
   21600    205.76383   0.33180045    1.5619681  0.018963208         0.05    5.5062152 0.0088752947    96.909361    10136.204 
   21700    206.63784   0.32941838    1.5679679  0.018963208         0.05    5.5069711 0.0086959457    96.646379    10135.109 
   21800    207.49869   0.33104451    1.5728954  0.018963208         0.05    5.7590186 0.0084227999    95.103047    10134.769 
   21900    208.34274   0.32953605     1.579409  0.018963208         0.05    5.8456705 0.0083686427     96.79175    10133.602 
   22000    209.17455   0.32980548    1.5854639  0.018963208         0.05    5.9286763 0.0082567021    94.351979    10133.625 
   22100      209.995   0.33083487    1.5916424  0.018963208         0.05     6.022047 0.0081405133    95.803521    10132.927 
   22200     210.8054   0.33044184    1.5975467  0.018963208         0.05    6.1134301 0.0080254044    95.504052     10132.37 
   22300    211.60266   0.33029002    1.6025247  0.018963208         0.05    6.1821836 0.0079380392    96.591382    10131.292 
   22400    212.39146   0.33089427    1.6084959  0.018963208         0.05    6.3779283 0.0077138523    95.632746    10130.667 
   22500    213.16237   0.33207251    1.6134461  0.018963208         0.05    6.3625139 0.0078012045    97.309294    10129.256 
   22600    213.95071   0.33150067    1.6190949  0.018963208         0.05    6.3175231 0.0078566382    96.568076    10128.189 
   22700    214.73338   0.33007596    1.6239807  0.018963208         0.05    6.2668015 0.0078955285    96.542336    10127.135 
   22800    215.52656    0.3306012    1.6286495  0.018963208         0.05     6.201688 0.0079278022    97.528436    10125.632 
   22900    216.30476   0.33145028    1.6335576  0.018963208         0.05    6.3500041 0.0077525465    97.028223    10124.358 
   23000    217.07587   0.33215263    1.6384634  0.018963208         0.05     6.435653 0.0076534053    92.695591    10125.133 
   23100    217.83555   0.33079459    1.6435115  0.018963208         0.05    6.4114549 0.0077932117    95.300075    10124.645 
   23200    218.62492   0.33073853    1.6480004  0.018963208         0.05    6.4038535 0.0077967782    97.970746    10122.948 
   23300    219.39713   0.32966472    1.6534889  0.018963208         0.05    6.4782453 0.0076816498    95.796081    10122.228 
   23400    220.21143   0.32991969    1.6592643  0.018963208         0.05    5.3922195 0.0087386602    97.143687    10120.901 
   23500    221.06498   0.33168536    1.6647953  0.018963208         0.05     5.467673 0.0081363253    97.280428    10119.516 
   23600    221.94254   0.33083485    1.6712308  0.018963208         0.05     5.304763 0.0087606969    96.328616    10118.555 
   23700    222.82973   0.33274845    1.6770161  0.018963208         0.05    5.4032448 0.0088891811    97.837012    10116.934 
   23800     223.7113   0.33284142    1.6838281  0.018963208         0.05    5.4821008  0.008453349    97.992926     10115.25 
   23900    224.58433   0.33277142    1.6897187  0.018963208         0.05    5.5543527 0.0088077772    97.032825    10113.985 
   24000    225.46233   0.33082688    1.6956605  0.018963208         0.05     5.635509 0.0087194245    95.847416     10113.24 
   24100    226.32863   0.33123553      1.70044  0.018963208         0.05    5.7318516  0.008571778    95.532875    10112.632 
   24200    227.18284   0.33056648    1.7055983  0.018963208         0.05    5.9871195 0.0081621177    96.202965    10111.726 
   24300    228.05702   0.33083084    1.7114706  0.018963208         0.05    4.8390289 0.0084217221    95.335253    10111.199 
   24400    228.99431   0.33156493    1.7178103  0.018963208         0.05    4.8579212 0.0095411655    96.996226    10109.949 
   24500    229.91839   0.33160501     1.724286  0.018963208         0.05    5.1734123 0.0093984325    97.137455    10108.642 
   24600    230.84176   0.33014055    1.7309106  0.018963208         0.05    4.9826039 0.0095300665    96.567876    10107.577 
   24700    231.79027   0.33063224    1.7371069  0.018963208         0.05    4.9417448 0.0095465735    97.634229    10106.067 
   24800    232.73764   0.33025813     1.744316  0.018963208         0.05    5.0902805 0.0087908388    95.327149    10105.535 
   24900    233.64434   0.33122954    1.7497382  0.018963208         0.05    5.0121526 0.0090800036    96.447454    10104.521 
   25000    234.54728   0.33103375    1.7556288  0.018963208         0.05    5.0432352  0.008635552    95.150209    10104.059 
   25100    235.45699   0.33175367    1.7610492  0.018963208         0.05    4.5794412 0.0092970502    96.208128    10103.143 
   25200    236.39198   0.33008354    1.7675874  0.018963208         0.05     4.963065 0.0091580595    97.090303    10101.861 
   25300    237.31709   0.32935098    1.7740767  0.018963208         0.05    5.0181905  0.009263734     97.24628    10100.517 
   25400     238.1598   0.33104553    1.7796494  0.018963208         0.05    5.2148992 0.0080281991    97.610417    10099.028 
   25500    238.96235   0.33141272    1.7851511  0.018963208         0.05    5.2741455 0.0079586778    96.200538    10098.117 
   25600    239.76171   0.33088254    1.7903261  0.018963208         0.05     5.287628  0.007959682    96.782101    10096.967 
   25700    240.63215   0.33077296    1.7967772  0.018963208         0.05    5.1791548 0.0091216598    97.873791    10095.381 
   25800    241.51988   0.33277013    1.8026177  0.018963208         0.05    5.2133624 0.0087083201    96.623202    10094.299 
   25900    242.35358   0.33134048    1.8081014  0.018963208         0.05    5.0968072 0.0085168612    96.935207    10093.092 
   26000    243.21985   0.33176522    1.8138082  0.018963208         0.05    5.1828491 0.0086988554    97.948943    10091.486 
   26100    244.08991   0.33108584    1.8194903  0.018963208         0.05     5.843141 0.0085222895    96.216581    10090.571 
   26200    244.99076   0.33182013    1.8248227  0.018963208         0.05     4.971694 0.0093195398    97.037629    10089.327 
   26300    245.90401   0.33253138    1.8300611  0.018963208         0.05    4.8908951 0.0090658798     95.37243    10088.752 
   26400    246.81516   0.33069581    1.8363182  0.018963208         0.05    4.9961344  0.009315463    98.281165    10087.029 
   26500    247.74422   0.33043063    1.8425436  0.018963208         0.05    5.1658533  0.009291903    95.877279    10086.248 
   26600    248.64989   0.33074326    1.8489653  0.018963208         0.05    5.4190685 0.0089167104    96.817332    10085.094 
   26700    249.54839   0.33097481    1.8553688  0.018963208         0.05    5.3970554 0.0089026402    96.538781     10084.05 
   26800    250.42973   0.33061023    1.8613594  0.018963208         0.05    5.5545954 0.0087714235     95.14531    10083.557 
   26900    251.29702   0.33012324    1.8671229  0.018963208         0.05    5.6488759 0.0084424929    95.926221    10082.751 
   27000    252.14784   0.33124845    1.8731072  0.018963208         0.05    5.9871541 0.0080859475    95.714387    10082.025 
   27100    252.97183   0.33111495    1.8788149  0.018963208         0.05    6.0188035 0.0082426586    95.591226    10081.346 
   27200    253.76015   0.33106463    1.8835904  0.018963208         0.05    5.7596705 0.0078814804    98.166843    10079.683 
   27300    254.54547   0.32975209    1.8892927  0.018963208         0.05    5.8382027 0.0078309349    95.589308    10079.002 
   27400      255.325   0.33131602    1.8936856  0.018963208         0.05    5.9131541 0.0077496053    95.489833    10078.358 
   27500    256.09481   0.33097144    1.8990133  0.018963208         0.05    5.9755005 0.0078083509    96.281318    10077.407 
   27600    256.87387   0.33184017    1.9045788  0.018963208         0.05     5.938559 0.0077858669    96.879993    10076.228 
   27700    257.64519   0.33109279    1.9103776  0.018963208         0.05    5.3096469 0.0076907762    96.291331    10075.273 
   27800     258.4176   0.33161772    1.9159266  0.018963208         0.05    5.2425023 0.0077042343    97.715023    10073.787 
   27900    259.19747   0.33213962    1.9209312  0.018963208         0.05    5.6374264 0.0083253871    96.021553    10072.934 
   28000     260.0016    0.3314531    1.9271036  0.018963208         0.05     5.599325 0.0079725973     96.96425    10071.728 
   28100    260.79655   0.33202649    1.9329344  0.018963208         0.05    5.6935876 0.0079319691    95.148741    10071.203 
   28200    261.58747   0.33126864    1.9391437  0.018963208         0.05    5.7462113 0.0078985609    96.430425    10070.194 
   28300    262.38386   0.33171712    1.9449836  0.018963208         0.05    5.8253316 0.0081477246    97.435884    10068.817 
   28400    263.21565   0.33248652    1.9514539  0.018963208         0.05    5.9085103 0.0083411404    93.414197    10068.954 
   28500    264.04349    0.3315488    1.9572869  0.018963208         0.05    5.9988494 0.0082020896    92.679021    10069.372 
   28600    264.85547     0.331366    1.9626828  0.018963208         0.05    5.7529627 0.0081641272    93.202013    10069.574 
   28700    265.66067   0.33211572    1.9679469  0.018963208         0.05    6.0453815 0.0079527392    93.266011    10069.742 
   28800    266.45215   0.33194147    1.9735077  0.018963208         0.05    6.1205135 0.0078639328    95.058215     10069.22 
   28900    267.23415   0.33153015    1.9785557  0.018963208         0.05    6.2203174 0.0078027259    96.395475    10068.204 
   29000    268.00599   0.33198936    1.9833547  0.018963208         0.05     6.409284 0.0075177942    94.176692    10068.006 
   29100    268.77375    0.3314959    1.9884418  0.018963208         0.05    5.7336959 0.0080528862    96.541581    10066.934 
   29200    269.60275   0.33241784    1.9936324  0.018963208         0.05    5.8289381 0.0083211212    92.830092    10067.239 
   29300    270.43896   0.33190189     1.999592  0.018963208         0.05    5.9280746 0.0082974836    92.204817    10067.777 
   29400    271.26766   0.33223342    2.0051237  0.018963208         0.05    5.9716609  0.008243404    93.145942    10067.942 
   29500    272.08676   0.33192783    2.0105895  0.018963208         0.05    6.0586177 0.0081257998    92.735146    10068.255 
   29600    272.88427   0.33299861    2.0161657  0.018963208         0.05    5.9441896 0.0078797881     93.96659    10068.096 
   29700    273.66956   0.33200604    2.0218724  0.018963208         0.05    6.0242948 0.0078038209    92.701778    10068.405 
   29800    274.44345   0.33158784    2.0276884  0.018963208         0.05    6.1774117 0.0075285103     91.89275    10069.013 
   29900    275.22873    0.3325907    2.0321747  0.018963208         0.05     6.000447 0.0080638412    93.115688    10069.147 
   30000    276.02702   0.33083751    2.0371095  0.018963208         0.05    6.0821395 0.0079299987    92.327571    10069.569 
   30100    276.81566   0.32963429    2.0419628  0.018963208         0.05    6.1974439  0.007794305    91.811928    10070.177 
   30200    277.58911   0.33177899    2.0466854  0.018963208         0.05    6.3376347 0.0077206383    93.054415    10070.306 
   30300    278.35489   0.33122908    2.0522849  0.018963208         0.05     6.426042 0.0076208627    92.906688    10070.483 
   30400    279.11363   0.33165178    2.0577339  0.018963208         0.05    6.4935668 0.0075436898    92.378999    10070.847 
   30500    279.86398   0.33166277    2.0630287  0.018963208         0.05     6.568601 0.0074609216     92.63978    10071.105 
   30600    280.60643   0.33080917    2.0682612  0.018963208         0.05    6.6433287 0.0073791351    92.170817    10071.528 
   30700    281.34283   0.33173388    2.0732617  0.018963208         0.05    6.3197378 0.0074207769    93.373292      10071.5 
   30800    282.11056   0.33167815    2.0787472  0.018963208         0.05     5.535461 0.0081781227    96.686659    10070.311 
   30900    282.92517   0.33440419    2.0841767  0.018963208         0.05    5.6448167 0.0081090814    95.496116    10069.527 
   31000    283.73259    0.3322996    2.0898993  0.018963208         0.05    5.7979075  0.008031932     95.23291    10068.831 
   31100    284.53014   0.33215283    2.0953364  0.018963208         0.05     5.895692 0.0079585146    95.695978    10067.976 
   31200    285.31766   0.33070378    2.1010374  0.018963208         0.05    5.2307656 0.0078205151    95.850723    10067.066 
   31300    286.09553   0.33146412    2.1063891  0.018963208         0.05    5.4612728 0.0076841396    95.609704    10066.237 
   31400    286.88919   0.33112477    2.1120804  0.018963208         0.05    5.5257979 0.0079308471    97.585345    10064.754 
   31500    287.70462   0.33161181    2.1181261  0.018963208         0.05    5.5833121 0.0082014177    97.990705    10063.143 
   31600    288.51969   0.33195077    2.1236023  0.018963208         0.05    5.6973875 0.0081026938    96.730876    10061.943 
   31700    289.32674   0.33259507    2.1291356  0.018963208         0.05     5.724685 0.0080352826    95.713557     10061.08 
   31800    290.11893   0.33214273    2.1338685  0.018963208         0.05    5.9802904 0.0078839665    95.774819    10060.195 
   31900    290.89653   0.33141254      2.13872  0.018963208         0.05    6.3122799 0.0075326072    95.706307    10059.332 
   32000    291.63815   0.33266625    2.1427953  0.018963208         0.05    6.4478747 0.0073782993    95.731908    10058.459 
   32100    292.37215   0.33122763    2.1472094  0.018963208         0.05    6.5346474 0.0072683054    95.068406    10057.806 
   32200     293.1542   0.33307243    2.1524433  0.018963208         0.05    4.9283051 0.0089210943    96.237046    10056.765 
   32300    294.00701   0.33111972    2.1584035  0.018963208         0.05    5.4205433 0.0088847894    97.185599    10055.421 
   32400    294.87882   0.33222077    2.1635126  0.018963208         0.05    5.5007056 0.0089320432    96.313508    10054.357 
   32500    295.73964   0.33182737     2.169347  0.018963208         0.05    5.1091751 0.0085985655    97.102935    10053.042 
   32600    296.63525   0.33116072    2.1751699  0.018963208         0.05    5.1987356 0.0090159401    97.023599    10051.754 
   32700    297.52735   0.33178681     2.181407  0.018963208         0.05    5.4016938 0.0090415309    96.661881    10050.582 
   32800    298.41331   0.33134373    2.1878707  0.018963208         0.05    5.5047448 0.0088528567    97.017203    10049.298 
   32900    299.28648   0.33181386    2.1933006  0.018963208         0.05    5.6630228 0.0087873247    97.564507    10047.846 
   33000    300.16504   0.33096927    2.1989185  0.018963208         0.05    5.4078273 0.0089318697    95.148007     10047.16 
   33100    301.03238   0.33160655    2.2040799  0.018963208         0.05    5.6408105 0.0082535431    96.069785    10046.176 
   33200    301.86857    0.3304569    2.2095545  0.018963208         0.05    5.7543115 0.0083776114     96.62939    10045.017 
   33300    302.69883     0.332834    2.2146907  0.018963208         0.05     5.616366 0.0080740748    95.602752    10044.181 
   33400    303.52851   0.33246975    2.2201472  0.018963208         0.05    5.5463932 0.0087190506    96.976939    10042.915 
   33500    304.39992    0.3310627    2.2263478  0.018963208         0.05    5.6599138 0.0086343402    96.477226    10041.805 
   33600    305.24366    0.3318034    2.2313592  0.018963208         0.05    5.9838269 0.0080443246    95.817374      10040.9 
   33700    306.06544   0.33243325    2.2368822  0.018963208         0.05    5.8881193 0.0083074583    95.945619    10039.954 
   33800    306.89135   0.33210818    2.2425602  0.018963208         0.05    5.9405291 0.0082085866    95.498138    10039.148 
   33900     307.6964   0.33142645    2.2479676  0.018963208         0.05    6.1387621 0.0079846026    96.747343    10037.954 
   34000    308.48028   0.33163447    2.2536808  0.018963208         0.05    6.3164775 0.0077559754    96.492696     10036.84 
   34100    309.25011   0.33107112    2.2585207  0.018963208         0.05      6.44623 0.0075641077    95.605672    10035.997 
   34200    309.99966   0.33078029    2.2631344  0.018963208         0.05    6.8099523 0.0072472008    96.686079    10034.824 
   34300    310.79906   0.32929818    2.2684321  0.018963208         0.05    5.4279223 0.0080178421    96.679639    10033.654 
   34400    311.65466   0.33027489    2.2744271  0.018963208         0.05    5.1768075 0.0089231596    97.525669    10032.232 
   34500    312.54938   0.33034753    2.2800744  0.018963208         0.05    4.9930856 0.0089276566    95.172015    10031.522 
   34600    313.43928   0.33190226    2.2858046  0.018963208         0.05    5.1770638 0.0088632682    96.070159    10030.536 
   34700    314.30878   0.33142255    2.2913338  0.018963208         0.05    5.2507018 0.0089079502    95.523019    10029.716 
   34800    315.19653   0.33052077    2.2973998  0.018963208         0.05    5.2586689 0.0088527385    96.500888      10028.6 
   34900    316.07771   0.33011367    2.3027895  0.018963208         0.05    5.2679764  0.008953257    96.380435    10027.521 
   35000    316.96726    0.3317909    2.3082039  0.018963208         0.05    5.4285083 0.0088263706    95.213885    10026.792 
   35100    317.83735   0.33126608    2.3137898  0.018963208         0.05    5.2516212   0.00869676    95.872961    10025.863 
   35200    318.71546   0.33148689    2.3197022  0.018963208         0.05    5.1802746 0.0088321687    97.499711    10024.457 
   35300    319.59022   0.33155773    2.3250687  0.018963208         0.05    5.1713029 0.0089306128    96.608001    10023.311 
   35400    320.47965   0.33135807     2.330991  0.018963208         0.05    5.2646402 0.0089713621     96.56443    10022.178 
   35500    321.36604   0.33097001    2.3376696  0.018963208         0.05    5.4929433  0.008115715    95.166207     10021.46 
   35600    322.18995   0.33074325    2.3430672  0.018963208         0.05    5.4549733 0.0083164197     98.16126    10019.871 
   35700    323.01707   0.33007043    2.3485237  0.018963208         0.05    5.6559434 0.0080313845     96.21795    10018.841 
   35800    323.81673    0.3317181    2.3531284  0.018963208         0.05    5.7474045 0.0079656241     96.88458    10017.618 
   35900    324.60916   0.33172807    2.3586014  0.018963208         0.05    5.8266482 0.0078744982    94.869738    10016.985 
   36000    325.39187   0.33154279    2.3641899  0.018963208         0.05    5.8736826 0.0077736789    95.776897    10016.083 
   36100    326.16749   0.33048108    2.3692907  0.018963208         0.05    5.9464451 0.0077204889    95.700651    10015.201 
   36200    326.93576   0.33081242    2.3750049  0.018963208         0.05    6.0232213 0.0076340539    94.178109    10014.769 
   36300    327.70909   0.33079468    2.3798769  0.018963208         0.05    5.4497565 0.0083877152      96.8629    10013.552 
   36400      328.543   0.33078961    2.3854124  0.018963208         0.05    5.5346586 0.0082795234     94.95395    10012.885 
   36500    329.36543   0.33204384    2.3909851  0.018963208         0.05    5.6296064 0.0080457833    95.705324    10011.998 
   36600     330.1866   0.33152564    2.3960097  0.018963208         0.05    5.4011529 0.0084389269    97.802768    10010.521 
   36700    331.03363   0.33134726    2.4013873  0.018963208         0.05    5.3614594 0.0084572004    96.031952     10009.54 
   36800    331.87597   0.33127986    2.4068209  0.018963208         0.05    5.5832456 0.0084589281    96.337444    10008.473 
   36900    332.71046    0.3311558    2.4121468  0.018963208         0.05    5.7858774 0.0081433169     96.88702    10007.253 
   37000    333.54279   0.33144759    2.4172533  0.018963208         0.05    5.2889738 0.0084269606    96.621354    10006.107 
   37100    334.37937   0.33038673    2.4232853  0.018963208         0.05    4.9757181 0.0084763034     96.90589    10004.883 
   37200    335.20621   0.33183816    2.4278336  0.018963208         0.05    5.8563259 0.0080265527    95.701109    10003.996 
   37300    336.05702   0.33086009    2.4327563  0.018963208         0.05    4.9887795 0.0089564762    97.022567    10002.741 
   37400    336.94838   0.33125381    2.4384114  0.018963208         0.05    5.0429194  0.009075995    95.706503    10001.852 
   37500    337.84463   0.33099056    2.4440715  0.018963208         0.05    5.0019826 0.0071590268    97.096147    10000.579 
   37600    338.55802   0.33142677    2.4483988  0.018963208         0.05    5.2953871 0.0071148748    97.970151    9999.0711 
   37700    339.27069   0.33143409    2.4530065  0.018963208         0.05    5.1672998 0.0070200439    96.313044    9998.0145 
   37800    339.97632   0.33046888    2.4573032  0.018963208         0.05    5.2573089 0.0089792877    97.489649     9996.639 
   37900    340.81871   0.33145763    2.4619717  0.018963208         0.05    5.2106542 0.0080591005    97.569908    9995.2439 
   38000    341.62178   0.33049484     2.467425  0.018963208         0.05    5.1846517  0.007985115    94.577499    9994.6717 
   38100    342.41653   0.33106027    2.4718793  0.018963208         0.05    5.2641264 0.0079018724     94.26936    9994.1842 
   38200     343.1971   0.33189364    2.4763675  0.018963208         0.05    5.0322838  0.008835474    95.638503    9993.3114 
   38300    344.07311   0.33096497     2.481712  0.018963208         0.05     4.870352 0.0082005364    96.224175    9992.2779 
   38400    344.93953   0.32957608    2.4867689  0.018963208         0.05     5.079914 0.0085730114    98.156918    9990.7319 
   38500    345.78103   0.33000124     2.492397  0.018963208         0.05    5.3787877 0.0082759226    96.074472    9989.7401 
   38600    346.59662   0.33018621    2.4986438  0.018963208         0.05    5.1408292 0.0082992894    96.222232    9988.7082 
   38700    347.38505   0.33088338    2.5028498  0.018963208         0.05    5.4764561 0.0075419477    96.654597    9987.5609 
   38800    348.13698   0.33181828    2.5081666  0.018963208         0.05    5.1818027 0.0074915794    95.916986    9986.6112 
   38900    348.88394   0.33109578     2.512452  0.018963208         0.05     6.042866 0.0081161388    96.414731    9985.5281 
   39000     349.7413    0.3306916    2.5186231  0.018963208         0.05    5.7023525 0.0086955908    95.642624    9984.6515 
   39100    350.60029   0.33178162    2.5239896  0.018963208         0.05    5.8708089 0.0084715454    95.815908    9983.7276 
   39200    351.44211    0.3313139    2.5289408  0.018963208         0.05    5.9695581 0.0083397609    95.287734    9982.9448 
   39300    352.27376   0.33124331    2.5338034  0.018963208         0.05    5.9580275 0.0083680475    97.731735    9981.5192 
   39400    353.10537   0.32988761    2.5392401  0.018963208         0.05    6.0415811 0.0082527982    95.706154    9980.6236 
   39500    353.87807   0.33158155    2.5439322  0.018963208         0.05    5.8246609 0.0074888387    96.593428    9979.4939 
   39600    354.66329   0.33218259    2.5490651  0.018963208         0.05    5.1667547 0.0082342884    96.613231    9978.3595 
   39700    355.48332   0.33091256     2.554965  0.018963208         0.05    5.2152618 0.0081692841    95.256247    9977.5822 
   39800     356.3296   0.33033286    2.5609171  0.018963208         0.05    5.2573374 0.0089289243    96.829223    9976.3922 
   39900    357.21468   0.33133636    2.5666704  0.018963208         0.05    5.3401241 0.0087045293    95.949855    9975.4306 
   40000    358.11203    0.3310982    2.5720524  0.018963208         0.05    5.4321245 0.0089449643    96.638429    9974.2905 
   40100    359.00399   0.33063871    2.5775156  0.018963208         0.05    5.5243622 0.0088487425    95.626445     9973.413 
   40200    359.88195   0.33006141    2.5820997  0.018963208         0.05    5.3968067 0.0086859602    96.938679    9972.1967 
   40300    360.74763   0.33056269    2.5872439  0.018963208         0.05    5.1413375 0.0086049118    96.008167    9971.2195 
   40400     361.6029    0.3299507    2.5927686  0.018963208         0.05    5.2368675 0.0084906232    95.811859    9970.2925 
   40500    362.45297   0.33001568    2.5983169  0.018963208         0.05    4.9800613 0.0093689792    96.141287    9969.2803 
   40600    363.39285   0.33116889    2.6050802  0.018963208         0.05     5.133558 0.0094317493     96.67458    9968.1324 
   40700    364.32746   0.33041009    2.6110124  0.018963208         0.05     5.038218 0.0093780448    91.653734    9968.3206 
   40800    365.25145   0.33040415    2.6173217  0.018963208         0.05    5.1918673 0.0091627905    93.366682     9968.032 
   40900    366.16265   0.33116032    2.6237579  0.018963208         0.05    5.1847516 0.0093981426     93.78409    9967.6277 
   41000    367.08301   0.33209941    2.6296091  0.018963208         0.05    5.5029371 0.0089599767    92.792694    9967.4867 
   41100     367.9885   0.33093881    2.6356289  0.018963208         0.05    5.3900821 0.0089866122    94.117457    9966.9872 
   41200    368.88987   0.33165126    2.6411265  0.018963208         0.05    4.9208924 0.0091620392    93.149334    9966.7419 
   41300    369.80391   0.33214154     2.647194  0.018963208         0.05     4.918646 0.0088910372    93.691306    9966.3485 
   41400     370.7092   0.33150596    2.6528068  0.018963208         0.05     5.075764 0.0090496462    94.502405    9965.7397 
   41500    371.66745   0.33057555    2.6591893  0.018963208         0.05    5.0535483 0.0097784934    96.669923    9964.5808 
   41600    372.58164   0.33116241    2.6644407  0.018963208         0.05    4.7149648  0.008931813    98.635083    9962.9476 
   41700    373.53075   0.33012233    2.6699448  0.018963208         0.05     4.845579 0.0097159234    96.241485    9961.8969 
   41800    374.48436   0.33074542    2.6758696  0.018963208         0.05    4.7297842 0.0093697909    96.899778    9960.6844 
   41900    375.40874   0.33075498     2.681484  0.018963208         0.05    5.0117581 0.0097710562    95.048004    9959.9326 
   42000    376.37775   0.33095468    2.6874944  0.018963208         0.05    5.1484716 0.0096757546    95.771036    9958.9981 
   42100    377.32283   0.33062934    2.6933476  0.018963208         0.05    4.8981226 0.0093031092    96.665334    9957.8433 
   42200    378.25135   0.33174002    2.6998678  0.018963208         0.05    4.9561959 0.0092439411    96.737078    9956.6717 
   42300    379.16961   0.33088546    2.7063556  0.018963208         0.05    4.8144885 0.0091052349    95.595147    9955.7803 
   42400    380.07498   0.33187065    2.7116803  0.018963208         0.05     4.905565 0.0089872802    95.498312    9954.9121 
   42500    380.96638   0.33138505    2.7172946  0.018963208         0.05    4.9640654 0.0088804159     95.39692    9954.0681 
   42600    381.84151   0.33051296     2.722339  0.018963208         0.05    4.9099157 0.0086340667    96.651122    9952.9175 
   42700    382.77081   0.33109014    2.7278015  0.018963208         0.05    4.8745034  0.009357539    96.747365    9951.7444 
   42800    383.69629   0.33037551    2.7333587  0.018963208         0.05    5.0759672  0.009114037    95.759666    9950.8103 
   42900    384.52664   0.32978686    2.7385277  0.018963208         0.05    4.9773161 0.0078277032    96.624226    9949.6673 
   43000    385.30634   0.33020356    2.7436162  0.018963208         0.05    5.0892693 0.0077603918    90.963929     9949.958 
   43100    386.07736   0.33141625     2.748616  0.018963208         0.05     4.862454 0.0077563219    93.582228    9949.5594 
   43200    386.84984   0.33007447    2.7537488  0.018963208         0.05    4.9014017 0.0076816716    92.873258    9949.3384 
   43300    387.61507   0.33051783    2.7589703  0.018963208         0.05     5.033323  0.007591662    92.509175     9949.207 
   43400    388.36312   0.33099568    2.7644765  0.018963208         0.05    5.0463016 0.0070350787    93.481966    9948.8233 
   43500    389.06693   0.33151267    2.7692256  0.018963208         0.05    5.3405828  0.007014329    93.707005      9948.38 
   43600    389.78939   0.33163658    2.7739435  0.018963208         0.05    5.3431418 0.0080657459    93.420668    9948.0056 
   43700    390.63802   0.33163557    2.7787962  0.018963208         0.05    5.0569021 0.0088449503     98.86805    9946.3373 
   43800    391.51646    0.3310768     2.784829  0.018963208         0.05    5.1168297 0.0088158784    97.805642    9944.9119 
   43900    392.40711   0.33228169    2.7901763  0.018963208         0.05    5.1797889  0.009125898    96.710491    9943.7405 
   44000     393.3087   0.33156654    2.7966397  0.018963208         0.05     5.244745 0.0090104596    97.516735     9942.384 
   44100    394.19496   0.33203376    2.8021016  0.018963208         0.05    5.2625004 0.0089269294    96.098685     9941.357 
   44200    395.06801   0.33177055    2.8075269  0.018963208         0.05    5.5782051 0.0087361198    97.134441    9940.0899 
   44300     396.0127    0.3309168    2.8136496  0.018963208         0.05    5.4514767 0.0088721481    98.836109    9938.4416 
   44400     396.9049   0.33221526    2.8193402  0.018963208         0.05     5.415136  0.008874429    96.912831    9937.2283 
   44500    397.75179   0.33217631    2.8250107  0.018963208         0.05    5.4998252 0.0078433189    96.815254    9936.0381 
   44600    398.53582   0.33245593    2.8295494  0.018963208         0.05    5.5782281 0.0078265525    96.179559    9934.9949 
   44700    399.31958   0.33195406    2.8346753  0.018963208         0.05    5.7157445 0.0084832579    98.361211    9933.4588 
   44800    400.08185   0.33200158    2.8399423  0.018963208         0.05    6.3346847 0.0075347718    98.308785    9931.9366 
   44900    400.81568   0.33045502     2.844987  0.018963208         0.05    6.5876274 0.0074495379     97.86509    9930.5148 
   45000    401.56827   0.33205935     2.849992  0.018963208         0.05    6.5286855 0.0074802755    97.757543    9929.1186 
   45100     402.3234   0.33051959    2.8548953  0.018963208         0.05    5.9889571 0.0081268619    96.520697    9928.0016 
   45200    403.13625   0.33176896    2.8605313  0.018963208         0.05    6.0405486 0.0080520618    97.184675    9926.7354 
   45300    403.93173   0.33040522    2.8667959  0.018963208         0.05    5.1308797 0.0077491414    97.324264    9925.4392 
   45400    404.70522   0.33081929    2.8720321  0.018963208         0.05    5.7982381 0.0077022898    96.265009    9924.3819 
   45500     405.4775   0.32984991    2.8765693  0.018963208         0.05     5.885598 0.0084737583    96.723114    9923.2215 
   45600    406.31552   0.33050645    2.8820418  0.018963208         0.05    5.9445085 0.0083323627    96.522496    9922.1066 
   45700    407.18791   0.33142274    2.8881222  0.018963208         0.05    5.5885049 0.0087880946    98.666801    9920.5218 
   45800     408.0608   0.33108723    2.8935829  0.018963208         0.05    5.6760629 0.0086572031    96.187786    9919.4837 
   45900    408.88757   0.33036463    2.8994855  0.018963208         0.05    6.0593428 0.0078609105    96.506373    9918.3744 
   46000    409.67016    0.3298882    2.9049521  0.018963208         0.05    6.1787135 0.0077088079    94.141497    9917.8051 
   46100    410.45084   0.33170571     2.910058  0.018963208         0.05    5.5878426 0.0084243344    97.449445    9916.4877 
   46200    411.29447   0.33095216    2.9158181  0.018963208         0.05    5.6962998  0.008384142    97.095023    9915.2488 
   46300    412.13724   0.33102763    2.9215137  0.018963208         0.05    5.2110526  0.008562289    96.875741    9914.0588 
   46400    412.99035    0.3317439    2.9264399  0.018963208         0.05    5.2956768 0.0084930593     95.39538    9913.1988 
   46500    413.83436   0.33076203    2.9314912  0.018963208         0.05    5.3800784 0.0085196781    95.192125    9912.3838 
   46600    414.68039   0.33098594    2.9360993  0.018963208         0.05    5.5035966 0.0083695067    96.049391    9911.3759 
   46700    415.49158   0.33134989    2.9412626  0.018963208         0.05    4.8661088 0.0082275266    97.249391    9910.1057 
   46800    416.33768    0.3314106    2.9455579  0.018963208         0.05     5.240823  0.008662857    97.527007    9908.7769 
   46900    417.17407    0.3310611    2.9497775  0.018963208         0.05     5.318752 0.0079488869    97.711699    9907.4101 
   47000    417.96687   0.33024277    2.9549433  0.018963208         0.05    5.3987311 0.0079023005    94.728987     9906.698 
   47100      418.754   0.33061728    2.9590652  0.018963208         0.05    5.5517575  0.007852301    96.370691    9905.6207 
   47200    419.54614   0.33071516    2.9626543  0.018963208         0.05    5.6273956 0.0081318649     97.50837    9904.2992 
   47300     420.3621   0.32974375    2.9671269  0.018963208         0.05    5.7265662 0.0081288656    97.710925    9902.9361 
   47400    421.16612   0.32979794     2.971522  0.018963208         0.05    5.7962721 0.0079841934    95.326152    9902.0889 
   47500    421.96691   0.33042328     2.975726  0.018963208         0.05    4.6944329 0.0079752608    98.788364    9900.5037 
   47600    422.75977   0.32974051     2.980823  0.018963208         0.05    5.7531917 0.0081914426    96.084926    9899.4908 
   47700    423.58305   0.32993375    2.9851784  0.018963208         0.05     5.719317  0.008289903    96.531982    9898.3815 
   47800    424.40778   0.33053279    2.9899179  0.018963208         0.05    5.7980237 0.0081898727    95.683796    9897.4554 
   47900    425.22208    0.3312372    2.9948626  0.018963208         0.05    5.8837744 0.0080844243    95.435427    9896.5829 
   48000    426.02519   0.32995965     2.998995  0.018963208         0.05    5.9793246  0.007939567    94.497593    9895.9159 
   48100     426.8043   0.32933387    3.0031126  0.018963208         0.05    6.1144564 0.0077939494     96.01076    9894.9173 
   48200    427.58098   0.33065091    3.0071393  0.018963208         0.05    6.1630173 0.0077262475    95.199017    9894.0938 
   48300    428.34936   0.33029992    3.0106767  0.018963208         0.05    6.2427771 0.0076136274    95.571404    9893.1888 
   48400    429.09591   0.33108791    3.0144449  0.018963208         0.05    4.6994717 0.0075141083    96.261298    9892.1357 
   48500    429.85092   0.32968728    3.0192692  0.018963208         0.05    5.1801937 0.0076249676     97.03067    9890.9211 
   48600    430.61088   0.33120501    3.0236368  0.018963208         0.05    5.2310371 0.0075636231    96.315543     9889.857 
   48700     431.3646   0.32960919    3.0272554  0.018963208         0.05    4.7369595 0.0074981548    96.376626    9888.7802 
   48800    432.11349   0.33094067     3.031124  0.018963208         0.05    4.7794387 0.0074701753    95.976202    9887.7879 
   48900    432.85789   0.33019621    3.0349029  0.018963208         0.05    4.8487937 0.0074109676    96.108749    9886.7675 
   49000    433.59421    0.3295245    3.0396557  0.018963208         0.05    4.9811781 0.0073141511     94.99933    9885.9828 
   49100    434.38304   0.32953217    3.0444337  0.018963208         0.05    6.1244778  0.008126777    95.692594    9885.0494 
   49200    435.23094   0.32853405     3.049464  0.018963208         0.05    4.9989145 0.0085458201    96.618461    9883.9219 
   49300    436.08575   0.32864483    3.0540584  0.018963208         0.05    5.0613964 0.0085398815     97.01202    9882.7139 
   49400    436.93667   0.32967263     3.058958  0.018963208         0.05    4.5705692 0.0085129867    96.656379    9881.5796 
   49500    437.85586   0.32992145    3.0648073  0.018963208         0.05    4.7233046 0.0093527054    95.723453    9880.6393 
   49600    438.78737   0.33003198    3.0700065  0.018963208         0.05    4.5274169  0.009255727    95.903016    9879.6611 
   49700    439.70655   0.33044674    3.0763121  0.018963208         0.05    4.7347781 0.0091921866    96.818919     9878.494 
   49800    440.62602    0.3304639    3.0815732  0.018963208         0.05    4.9443217 0.0095188161     96.60651    9877.3708 
   49900    441.56742   0.32907803    3.0876874  0.018963208         0.05    5.0788543 0.0093094912     96.16485    9876.3384 
   50000    442.48511   0.33002092    3.0934657  0.018963208         0.05    5.5362986 0.0086687956    95.058473    9875.5361 
   50100    443.38822   0.33141043    3.0992947  0.018963208         0.05    5.3433617 0.0091861201    95.914244    9874.5547 
   50200    444.30085   0.33084252    3.1054629  0.018963208         0.05     5.428669 0.0090468456    96.049941    9873.5452 
   50300    445.19889   0.33137446    3.1115225  0.018963208         0.05    5.5224834 0.0088938309    96.200935    9872.5048 
   50400    446.08227   0.33002514    3.1168797  0.018963208         0.05    5.5979398 0.0087675693    95.686263    9871.5697 
   50500    446.95408   0.33117011    3.1227746  0.018963208         0.05    5.6763574 0.0086490294    96.767677    9870.4145 
   50600     447.8119   0.33019681    3.1292694  0.018963208         0.05     5.787981 0.0084820552    96.216383     9869.371 
   50700    448.65547   0.33034017    3.1343445  0.018963208         0.05    5.9365202 0.0082859965    96.115135    9868.3479 
   50800    449.50877   0.33011137    3.1405914  0.018963208         0.05    5.7154966 0.0086881164    98.681611    9866.8192 
   50900    450.37043   0.33102802    3.1468422  0.018963208         0.05     5.797212  0.008544745     95.77425    9865.8662 
   51000    451.20996   0.33064114     3.153313  0.018963208         0.05    5.9655319 0.0080933561    95.073298     9865.056 
   51100    452.03589   0.33110702    3.1588624  0.018963208         0.05    5.5963754 0.0084751432    97.297172    9863.7984 
   51200    452.91378   0.33186337    3.1641028  0.018963208         0.05    4.8995691 0.0088322514    97.109253    9862.5786 
   51300    453.80746   0.33192803    3.1704199  0.018963208         0.05    4.9189028 0.0091403243    96.224903    9861.5345 
   51400    454.68365    0.3324681    3.1763418  0.018963208         0.05    5.0207091 0.0084029814    97.214341    9860.2953 
   51500    455.50285   0.33156262    3.1826222  0.018963208         0.05    5.1487688 0.0081728515    97.595722    9858.9828 
   51600    456.31724   0.33202628    3.1886802  0.018963208         0.05    5.2770586 0.0081028954    95.798466    9858.0248 
   51700    457.11971   0.33130925    3.1936712  0.018963208         0.05    5.4103681 0.0079579892    96.516255    9856.9241 
   51800    457.89795   0.33292672    3.1988572  0.018963208         0.05    4.7455702 0.0077432414    97.574108     9855.618 
   51900    458.67268   0.33133938     3.204421  0.018963208         0.05    5.0580695 0.0077441363     98.09326    9854.2138 
   52000    459.44695   0.33051581    3.2103643  0.018963208         0.05    5.1495585 0.0077179805    96.855116    9853.0488 
   52100     460.2697   0.33168596    3.2149568  0.018963208         0.05    5.2988992 0.0087399544    96.500777    9851.9532 
   52200    461.14454   0.33071909    3.2210055  0.018963208         0.05    5.8260128 0.0085789664    97.738157    9850.6197 
   52300    461.99765   0.33119279    3.2271073  0.018963208         0.05     5.898118 0.0084730929    95.741151     9849.674 
   52400    462.83954    0.3319697    3.2318618  0.018963208         0.05    5.9824631 0.0083538374    95.675546    9848.7409 
   52500    463.66969   0.33084017     3.237336  0.018963208         0.05    6.0763315 0.0082234377    95.971327    9847.7493 
   52600    464.48966   0.32984562    3.2428185  0.018963208         0.05    6.1665014 0.0081044244     96.79032    9846.5987 
   52700    465.32642   0.33183036     3.248343  0.018963208         0.05    5.9327168 0.0083987384    98.228364    9845.1766 
   52800     466.1614    0.3311141    3.2547317  0.018963208         0.05    6.0121814 0.0082874562    95.872413    9844.2048 
   52900      466.985   0.33079278    3.2606488  0.018963208         0.05    6.0972598  0.008172983    95.590942    9843.2878 
   53000     467.7975   0.33107515    3.2661723  0.018963208         0.05    6.1781222 0.0080667121     94.60425    9842.5652 
   53100    468.58913   0.33118913    3.2716459  0.018963208         0.05    6.3153822 0.0078864805    95.640989    9841.6371 
   53200     469.3733   0.33138811    3.2763913  0.018963208         0.05    6.3880564 0.0077938951    96.338263    9840.5738 
   53300    470.14956   0.33212478    3.2813903  0.018963208         0.05    6.4511928 0.0077164711    92.013504    9840.3772 
   53400    470.96833    0.3323006    3.2875653  0.018963208         0.05    5.5615811 0.0086703333     92.86896    9839.9997 
   53500    471.74193   0.33277856    3.2927659  0.018963208         0.05    6.3493533 0.0076447958    94.696799     9839.252 
   53600    472.50261   0.33115172    3.2977956  0.018963208         0.05    6.4247278   0.00756013    92.500341    9838.9459 
   53700    473.25359   0.33087304     3.302089  0.018963208         0.05    6.6546961 0.0073487143     92.55772     9838.625 
   53800    474.04074   0.33167959     3.307431  0.018963208         0.05    5.6903203 0.0080718582    92.677812    9838.2767 
   53900     474.8469   0.33149018    3.3123854  0.018963208         0.05    5.7362494 0.0080515471    92.442197     9837.974 
   54000    475.65882   0.33191339    3.3180176  0.018963208         0.05    5.4365481  0.008531451    92.427428    9837.6715 
   54100    476.50087   0.33251991    3.3239604  0.018963208         0.05    5.5026947 0.0083776683    93.784069    9837.0923 
   54200    477.33271   0.33176838    3.3302514  0.018963208         0.05    5.6324187 0.0083751793    95.163141    9836.2418 
   54300    478.16081   0.33167256     3.335288  0.018963208         0.05    5.8033648 0.0085155011    96.413623    9835.1532 
   54400    479.00581   0.33148156    3.3406046  0.018963208         0.05    5.7535895 0.0084389398      96.1371    9834.1166 
   54500    479.83939   0.33018939    3.3455607  0.018963208         0.05    5.9098361 0.0081006497    94.962722    9833.3031 
   54600    480.64973   0.32944153    3.3499423  0.018963208         0.05    5.8836765 0.0080646788    95.265312    9832.4309 
   54700    481.46506   0.33062576     3.353993  0.018963208         0.05    5.6266509 0.0083798259     96.00419    9831.4183 
   54800    482.29681   0.33062985    3.3590988  0.018963208         0.05    5.4089787 0.0083946993    95.343336    9830.5303 
   54900     483.1403    0.3314307    3.3643624  0.018963208         0.05    5.5432894 0.0085887935    97.457347    9829.2499 
   55000    483.99931   0.33161789    3.3697443  0.018963208         0.05    5.3257986 0.0080581599    95.739141    9828.2869 
   55100    484.86414   0.33104224    3.3745136  0.018963208         0.05    5.1057588 0.0088237627    94.803799    9827.5004 
   55200    485.73878   0.33170085     3.380202  0.018963208         0.05     5.490788 0.0086940754    95.751686    9826.5341 
   55300    486.61852   0.33022401    3.3860686  0.018963208         0.05    5.4737804 0.0088801145    98.213873    9825.1203 
   55400     487.4972   0.33093922    3.3914513  0.018963208         0.05      5.62929 0.0086451702    95.569401    9824.1882 
   55500    488.38494    0.3307975    3.3962729  0.018963208         0.05    5.3786915 0.0088424797    97.332982    9822.9332 
   55600    489.24214   0.33335001    3.4009539  0.018963208         0.05    5.8862985   0.00820551    97.035092    9821.7325 
   55700    490.05952   0.33181062    3.4060844  0.018963208         0.05    5.1881937 0.0082634607    96.348775    9820.6569 
   55800    490.90172   0.33096584    3.4122413  0.018963208         0.05     5.272413 0.0083840989    97.802472    9819.3203 
   55900    491.75204   0.33094192    3.4168721  0.018963208         0.05    5.3574451 0.0084469495    97.052605    9818.1184 
   56000     492.5828    0.3315454    3.4217882  0.018963208         0.05    5.4413093 0.0082011825    95.664482     9817.169 
   56100    493.40364   0.33197383    3.4260089  0.018963208         0.05    5.2805019 0.0081966393    95.133009    9816.3176 
   56200    494.19914    0.3327032    3.4307363  0.018963208         0.05    5.8489003 0.0075760725    96.764574    9815.1678 
   56300    494.95291   0.33128807    3.4360295  0.018963208         0.05    5.8478162 0.0075674526    97.244476     9813.933 
   56400    495.70597   0.33197807    3.4409328  0.018963208         0.05     5.948654 0.0074679846    95.063537    9813.0936 
   56500    496.49388   0.33115724    3.4462186  0.018963208         0.05    5.2367194 0.0085757126    87.190876    9813.8395 
   56600    497.34123   0.33135378    3.4517705  0.018963208         0.05    5.3367386 0.0077663823    94.298268    9813.1379 
   56700    498.19054   0.33092089    3.4572071  0.018963208         0.05    5.0474772 0.0085836022    97.516735    9811.8528 
   56800    499.04827    0.3313716    3.4622175  0.018963208         0.05     5.145001  0.008935868    95.218684    9810.9795 
   56900    499.93336   0.32993527    3.4690702  0.018963208         0.05    5.2335162 0.0087946839    94.940345    9810.1567 
   57000    500.80508    0.3307258    3.4751986  0.018963208         0.05    5.3305198 0.0091301482    95.737021     9809.188 
   57100    501.70092   0.33079371    3.4813084  0.018963208         0.05    5.3068569 0.0090987117    95.267497    9808.3041 
   57200    502.58904    0.3316694    3.4874074  0.018963208         0.05    5.5460032 0.0088325804    96.406177    9807.2153 
   57300    503.46491   0.33148356    3.4940058  0.018963208         0.05    5.6877884  0.008563168    95.262045    9806.3316 
   57400    504.35535   0.33078308    3.5000098  0.018963208         0.05    5.4093179 0.0090191739    96.501621    9805.2259 
   57500      505.245    0.3312152    3.5060429  0.018963208         0.05    5.4982829 0.0087119473    97.115571     9804.013 
   57600    506.12458   0.33097627    3.5123411  0.018963208         0.05    5.5936962 0.0087364234    96.370403    9802.9311 
   57700     506.9915    0.3309686    3.5186115  0.018963208         0.05    5.7000602 0.0085933998    94.838676     9802.123 
   57800    507.84466   0.33137898    3.5248166  0.018963208         0.05    5.7899727 0.0084652296    96.017948    9801.1029 
   57900    508.68128   0.32974395    3.5305691  0.018963208         0.05     5.988601 0.0081826307    96.175479     9800.055 
   58000    509.50334   0.33205559    3.5364412  0.018963208         0.05    5.9875887 0.0081516161    94.805171    9799.2513 
   58100    510.30868   0.33077862    3.5425485  0.018963208         0.05    6.3985188 0.0076794068    95.246253    9798.3675 
   58200    511.07873   0.33036612    3.5479766  0.018963208         0.05     6.370982 0.0077113797    96.784245    9797.2131 
   58300    511.84459   0.33081439    3.5532177  0.018963208         0.05    6.4646668 0.0076065319    95.860187      9796.22 
   58400    512.60137   0.32846182    3.5582103  0.018963208         0.05    6.5402254 0.0075212088    94.368006    9795.4927 
   58500    513.34958   0.33133517    3.5627856  0.018963208         0.05    6.6684073 0.0073774571    94.638104    9794.7156 
   58600    514.08358   0.33061147    3.5678871  0.018963208         0.05    6.7147513 0.0073209766    97.046946    9793.5162 
   58700    514.81057   0.33031802    3.5728363  0.018963208         0.05    6.9044878  0.007211037    96.081052    9792.4835 
   58800    515.58329   0.33164445    3.5784116  0.018963208         0.05    5.3416535 0.0079863112    97.680865    9791.1779 
   58900    516.37958   0.33104947    3.5843971  0.018963208         0.05    5.4668757 0.0079352209    95.309257    9790.2803 
   59000    517.20183   0.33045831    3.5900475  0.018963208         0.05    5.5154076 0.0084317452     96.50191    9789.1754 
   59100    518.04007   0.33132489    3.5960105  0.018963208         0.05    5.5988247 0.0083225555    94.101599    9788.4915 
   59200    518.86755   0.33096308     3.602631  0.018963208         0.05     5.681572 0.0082169815    95.957516    9787.4797 
   59300    519.68446   0.33287728    3.6085026  0.018963208         0.05    5.7715573 0.0081132905    95.250601    9786.5904 
   59400    520.48955    0.3310042    3.6146524  0.018963208         0.05    6.0144381 0.0079698227    95.308174    9785.6906 
   59500    521.28735   0.33109296    3.6203081  0.018963208         0.05    6.0635156  0.008014213    96.479201     9784.589 
   59600     522.0553   0.33158947     3.626084  0.018963208         0.05    6.6556711 0.0072901184    97.249955     9783.358 
   59700    522.78121    0.3316832    3.6308461  0.018963208         0.05    6.7258645 0.0072187252    95.620297    9782.4037 
   59800    523.49936   0.33126435    3.6357361  0.018963208         0.05    6.8391569 0.0070822125    94.851116    9781.5825 
   59900    524.20605   0.33059257    3.6400191  0.018963208         0.05    6.6926701 0.0070704288     96.97176    9780.3986 
   60000    524.91011   0.33083984    3.6446561  0.018963208         0.05    6.7630758 0.0070043948    95.500486    9779.4641 
   60100    525.60763   0.33064768    3.6494195  0.018963208         0.05     6.837662 0.0069409321     95.03842    9778.6089 
   60200    526.29743   0.32987699    3.6544158  0.018963208         0.05    6.9029829 0.0068201236    94.811536    9777.7923 
   60300     526.9759   0.33034372    3.6581283  0.018963208         0.05    5.4197425 0.0086735359     97.04771    9776.5962 
   60400    527.84286   0.33210369    3.6627993  0.018963208         0.05    5.7116984 0.0086887748    97.560513    9775.3163 
   60500    528.70396   0.33214566    3.6682536  0.018963208         0.05    4.9447205 0.0083665066    95.896766    9774.3135 
   60600    529.55743   0.33146337    3.6743333  0.018963208         0.05    5.0183147 0.0082417412    96.177794    9773.2633 
   60700    530.40169   0.32951117    3.6797473  0.018963208         0.05     5.251793 0.0086838949    96.429693    9772.1712 
   60800     531.2671   0.33182063    3.6850201  0.018963208         0.05    5.3497803  0.008617627    96.453687    9771.0752 
   60900    532.14085   0.33207736    3.6898316  0.018963208         0.05    5.4079441 0.0090599282    94.652606    9770.2836 
   61000    533.04143   0.33103764     3.695367  0.018963208         0.05    5.4980023  0.008843757      95.5034    9769.3463 
   61100    533.90866   0.33117509    3.6996925  0.018963208         0.05     5.590123 0.0087974223    95.521844    9768.4055 
   61200    534.77749   0.32959594    3.7056437  0.018963208         0.05    5.1741909 0.0089757586    96.867978    9767.2412 
   61300     535.6754   0.32980158    3.7115837  0.018963208         0.05    5.3584478 0.0091801967    97.943087    9765.9038 
   61400    536.58745   0.33010493    3.7175759  0.018963208         0.05    5.4706044 0.0090177011    95.960085    9764.8899 
   61500    537.48316   0.33191295    3.7236621  0.018963208         0.05    5.5336662  0.008908082    96.404781    9763.8026 
   61600    538.36344   0.33063092    3.7295946  0.018963208         0.05    5.8833246   0.00841245    95.624417    9762.8445 
   61700    539.22805   0.32963131    3.7354703  0.018963208         0.05    5.7091675 0.0086193368    97.212899    9761.6262 
   61800     540.0694    0.3302131    3.7410891  0.018963208         0.05    5.9580715 0.0083096971    96.098135    9760.5896 
   61900    540.89165   0.33135809    3.7465646  0.018963208         0.05    6.1417579 0.0080863829    95.777356    9759.6059 
   62000    541.69923   0.33011118    3.7521522  0.018963208         0.05    6.1699424 0.0079369251    96.142212     9758.562 
   62100    542.53211   0.33017863    3.7583032  0.018963208         0.05    5.0120979 0.0089567199    97.653756     9757.275 
   62200     543.4262   0.33106076    3.7645131  0.018963208         0.05    4.9003178 0.0089043288    96.260856    9756.2122 
   62300    544.34584   0.33118406    3.7706845  0.018963208         0.05    5.0564599 0.0093256815    96.457502    9755.1176 
   62400    545.27507   0.33090199    3.7771572  0.018963208         0.05     4.829869 0.0095660217    95.417017    9754.1931 
   62500    546.22249   0.33112269    3.7842394  0.018963208         0.05    4.9020056 0.0094497202    98.364879    9752.7971 
   62600    547.16522   0.32953508    3.7908007  0.018963208         0.05    4.9845143 0.0093829941    96.971109     9751.621 
   62700    548.08584    0.3317645     3.796999  0.018963208         0.05    5.2612517 0.0090840754    96.423752     9750.533 
   62800    548.97017   0.33160029    3.8037772  0.018963208         0.05    6.2384957 0.0077802319    95.940198    9749.5231 
   62900    549.77897   0.33064565    3.8094837  0.018963208         0.05    5.9448881  0.008225881    99.121184    9748.0148 
   63000    550.59686   0.33014067    3.8145411  0.018963208         0.05    6.0331744 0.0081095183    94.142553    9747.3016 
   63100    551.40109   0.32946166    3.8206741  0.018963208         0.05    6.0745255 0.0080132582    95.853658    9746.3057 
   63200     552.1984   0.33083514    3.8260557  0.018963208         0.05    6.1431141 0.0079109784    94.622668    9745.5108 
   63300    552.98763   0.33072564    3.8314496  0.018963208         0.05    6.0563934 0.0078847951    96.478735    9744.4143 
   63400    553.76958   0.33138785    3.8363789  0.018963208         0.05     6.063793 0.0082009464    95.252872    9743.5151 
   63500    554.58449   0.32993527    3.8423153  0.018963208         0.05    5.6581222 0.0079810825    96.729203     9742.379 
   63600    555.37862   0.33047198    3.8475519  0.018963208         0.05    5.7103383 0.0078502806    95.887756    9741.3768 
   63700    556.13343   0.33049103    3.8517498  0.018963208         0.05    5.9896937 0.0074589433    96.874734    9740.2183 
   63800    556.90026   0.32932821    3.8567034  0.018963208         0.05    5.8632296 0.0078262125    97.090303    9739.0266 
   63900    557.67533   0.33038623    3.8624965  0.018963208         0.05    6.0779195 0.0077296709    96.142102    9737.9842 
   64000    558.45946    0.3307987    3.8675059  0.018963208         0.05    5.9309784 0.0079786997    95.878659    9736.9836 
   64100    559.25455   0.33109712      3.87235  0.018963208         0.05    6.0034135 0.0079016655    94.034889    9736.2815 
   64200    560.04055   0.33148656    3.8773252  0.018963208         0.05    6.0820132 0.0078095725    96.144791     9735.238 
   64300      560.817   0.33112336    3.8825946  0.018963208         0.05    6.1864952 0.0076971712    95.311076     9734.327 
   64400    561.58125   0.33116106    3.8876367  0.018963208         0.05    6.3948471 0.0076571232    96.512146    9733.2259 
   64500    562.34304   0.33165419    3.8916056  0.018963208         0.05    6.4710545 0.0075707335    95.534616    9732.2787 
   64600    563.08902   0.33024936    3.8967432  0.018963208         0.05    5.2470792 0.0085853357    96.437497    9731.1893 
   64700    563.94279   0.33208436    3.9023482  0.018963208         0.05    5.3370694 0.0084758727    95.255511    9730.2861 
   64800    564.78371   0.33144047    3.9085616  0.018963208         0.05    5.2041443 0.0083738593    96.260392    9729.2243 
   64900    565.61638   0.33134451    3.9133998  0.018963208         0.05    5.7042492 0.0082867948    95.457278    9728.2884 
   65000     566.4317   0.33204642    3.9187442  0.018963208         0.05    5.2416068   0.00843256    95.500399    9727.3454 
   65100    567.27254   0.33119858    3.9245028  0.018963208         0.05    5.3258873 0.0083904195    95.399177    9726.4181 
   65200    568.13559   0.33094378     3.930053  0.018963208         0.05    5.3746582 0.0092776501     96.35267    9725.3416 
   65300     568.9753   0.33076207    3.9359022  0.018963208         0.05    5.4341386 0.0084095227    97.049506    9724.1587 
   65400    569.81225   0.33136382    3.9412938  0.018963208         0.05    5.5178341 0.0083196144    94.516161    9723.3708 
   65500    570.64037   0.33124446    3.9466806  0.018963208         0.05    5.5969149 0.0082317054    94.419883    9722.5975 
   65600    571.46528   0.33146516    3.9524228  0.018963208         0.05    5.6820102 0.0080667834    96.519875    9721.4952 
   65700    572.31623   0.33128035    3.9587201  0.018963208         0.05    5.7797043 0.0086367781    96.211571    9720.4402 
   65800    573.18289    0.3310957     3.964559  0.018963208         0.05    5.3251048 0.0088587501    96.709933    9719.3093 
   65900    574.08061   0.33126966    3.9711998  0.018963208         0.05    5.3439101 0.0090317517     96.84134    9718.1587 
   66000    574.99735   0.32958093    3.9780689  0.018963208         0.05     5.435933 0.0091068231    95.711548     9717.181 
   66100    575.89619   0.33044433    3.9848104  0.018963208         0.05    5.5008654 0.0088243094    95.677663    9716.2083 
   66200    576.75901   0.32994508    3.9911429  0.018963208         0.05    5.5596965 0.0076276695     97.49953      9714.96 
   66300    577.51972   0.33138428    3.9970112  0.018963208         0.05    5.6357679 0.0074982527    92.691719    9714.4615 
   66400    578.34456   0.33100633    4.0020858  0.018963208         0.05    5.8007759 0.0085213656    81.128066    9716.1233 
   66500    579.18834   0.33002665    4.0083539  0.018963208         0.05    5.8735177 0.0081941859    83.777136    9717.2293 
   66600    580.01733    0.3309251    4.0139545  0.018963208         0.05    6.0289744 0.0081447957    96.255377    9716.1597 
   66700    580.82381   0.33120182    4.0192879  0.018963208         0.05    5.5173137 0.0079889452    96.773862    9715.0124 
   66800    581.62758   0.33117384    4.0250173  0.018963208         0.05     5.518691 0.0080427367    97.154825    9713.8087 
   66900    582.42798   0.33102115    4.0305026  0.018963208         0.05    5.7874077  0.008002393    94.552895    9713.0007 
   67000    583.22647   0.33090168    4.0359964  0.018963208         0.05    6.0562684 0.0078352565    96.103574    9711.9543 
   67100     584.0018   0.33077854    4.0406995  0.018963208         0.05    6.2583194 0.0077565895    95.058473    9711.0669 
   67200    584.80493   0.33031044    4.0463701  0.018963208         0.05    6.0049073 0.0081917534    99.895325     9709.472 
   67300    585.61131    0.3315586    4.0515401  0.018963208         0.05    6.1115427 0.0080678048    96.932182    9708.3029 
   67400    586.41329   0.33170958    4.0571627  0.018963208         0.05    6.1966124 0.0079562301    95.303907    9707.3782 
   67500    587.20625   0.33237623    4.0622646  0.018963208         0.05    6.2543693 0.0078818952    94.735363    9706.5401 
   67600    587.92382   0.33236526    4.0669498  0.018963208         0.05    6.7091024 0.0064388374    97.850136    9705.2379 
   67700    588.56508   0.33268213    4.0709078  0.018963208         0.05    6.7812602 0.0063847145    95.421206    9704.2947 
   67800    589.20201   0.33089484    4.0755696  0.018963208         0.05    6.8290046 0.0063541032     96.00375    9703.2638 
   67900     589.8353   0.33148006    4.0793329  0.018963208         0.05    6.8386745 0.0063097934    95.744364    9702.2716 
   68000    590.59746   0.33165051    4.0841844  0.018963208         0.05         5.14 0.0084760052    97.074641    9701.0831 
   68100    591.44463   0.33155551    4.0894003  0.018963208         0.05    5.1618484 0.0084639717    95.595997    9700.1131 
   68200    592.29026   0.33129219    4.0958124  0.018963208         0.05    5.5777164 0.0084365554      95.1244    9699.2138 
   68300    593.16552   0.33013441    4.1010839  0.018963208         0.05     5.444241 0.0089096997    97.257239    9697.9995 
   68400    594.02291   0.33177825    4.1071758  0.018963208         0.05     5.659536 0.0084818689    94.846354    9697.1417 
   68500    594.86721     0.330938    4.1131223  0.018963208         0.05    5.7067365 0.0084906246    97.085763    9695.9526 
   68600    595.71197   0.33144439    4.1187899  0.018963208         0.05    5.7784814 0.0083907186    94.959905    9695.0771 
   68700    596.54594   0.33196984     4.123489  0.018963208         0.05    5.8653784 0.0082731844    94.976592    9694.1985 
   68800    597.34951    0.3313335    4.1289926  0.018963208         0.05    6.1078716  0.007878344    96.007354    9693.1664 
   68900    598.12799    0.3309623    4.1346827  0.018963208         0.05    6.2786982 0.0075489421    94.892682    9692.2997 
   69000    598.83357   0.33162334    4.1390798  0.018963208         0.05    7.3247949 0.0064575974    95.891614    9691.2843 
   69100    599.55801   0.33174926    4.1429199  0.018963208         0.05     5.600254 0.0073401296    96.953244    9690.1149 
   69200    600.28913   0.33291539    4.1473755  0.018963208         0.05    5.6733127 0.0072759707    94.202941     9689.351 
   69300    601.01388   0.33119358    4.1521663  0.018963208         0.05    5.7457881 0.0072130388    95.558166    9688.3841 
   69400    601.75731   0.33209438    4.1568081  0.018963208         0.05    5.5324397 0.0081572042    94.815501    9687.5269 
   69500    602.55626   0.33191961    4.1626092  0.018963208         0.05     6.003243 0.0081645678    96.188249    9686.4675 
   69600    603.36435   0.33253329    4.1677302  0.018963208         0.05    6.0822344 0.0082041513    97.576673    9685.2105 
   69700    604.17957   0.33224455    4.1731676  0.018963208         0.05    6.1455691 0.0081196017    97.249594    9684.0001 
   69800    604.97838   0.33224463    4.1776684  0.018963208         0.05    6.3192643 0.0079107515    97.194855     9682.798 
   69900    605.76382    0.3321824    4.1829073  0.018963208         0.05    5.5270645 0.0067904418    96.077443    9681.7556 
   70000    606.44498   0.33215671    4.1868644  0.018963208         0.05    5.9919174 0.0067190235    94.351385    9680.9662 
   70100    607.11898   0.33122944    4.1910499  0.018963208         0.05      7.12946 0.0066442656     95.51882    9680.0041 
   70200    607.81265   0.33161106    4.1953751  0.018963208         0.05    4.9521564 0.0070633428    96.377644    9678.9183 
   70300    608.52067   0.33102063    4.1998228  0.018963208         0.05    4.8778222 0.0070831205    98.151221    9677.5846 
   70400     609.2285   0.33155439    4.2050044  0.018963208         0.05    4.9746292  0.007101348    97.767296    9676.3047 
   70500    609.93896   0.33118086    4.2096431  0.018963208         0.05    5.0971306 0.0071016582    97.482806    9675.0649 
   70600    610.64856   0.33164615    4.2141558  0.018963208         0.05    5.2156984 0.0068648571     97.93849    9673.7628 
   70700    611.39879   0.33112481    4.2191354  0.018963208         0.05    5.3530003 0.0075795282    96.146356    9672.7117 
   70800    612.16362    0.3301937    4.2240099  0.018963208         0.05    4.9730452 0.0080632511    96.816483    9671.5661 
   70900    613.03878   0.33040875    4.2293612  0.018963208         0.05    5.0573981 0.0094361187    96.933034    9670.4046 
   71000    613.94018   0.32995311    4.2347422  0.018963208         0.05    5.1588121 0.0086474665    95.713295    9669.4155 
   71100    614.78538   0.33067166    4.2399657  0.018963208         0.05    4.8844777 0.0083891204    96.376161    9668.3323 
   71200    615.65974   0.33169634    4.2455233  0.018963208         0.05    5.2430773 0.0090707099    98.410668    9666.9694 
   71300    616.56992    0.3302378    4.2508713  0.018963208         0.05    5.4978559 0.0090837154    96.371222    9665.8876 
   71400    617.46456   0.33038457    4.2561844  0.018963208         0.05     5.576133 0.0089622517    96.775648    9664.7495 
   71500    618.35846   0.33005642      4.26155  0.018963208         0.05    5.6795235 0.0087303944    95.598437     9663.777 
   71600    619.23919   0.33058377    4.2665308  0.018963208         0.05    5.6408044 0.0084732612    97.058265    9662.6002 
   71700    620.10359   0.33164274    4.2720486  0.018963208         0.05    5.5890401 0.0089021499    96.495294    9661.5017 
   71800    620.97445   0.33005166     4.277799  0.018963208         0.05    6.0206939 0.0082470625    95.343618    9660.5652 
   71900    621.77042   0.33230505    4.2829931  0.018963208         0.05    5.2691363 0.0085333768    96.703467     9659.438 
   72000    622.60368   0.33061806    4.2881158  0.018963208         0.05    5.2597979 0.0082964118    97.156153    9658.2489 
   72100    623.48345   0.33142074    4.2934881  0.018963208         0.05    5.4354702 0.0086003736     95.49929    9657.2901 
   72200    624.31715   0.33064701    4.2989044  0.018963208         0.05    5.5936319  0.008518321    97.591067    9656.0427 
   72300    625.16358   0.33048659    4.3037667  0.018963208         0.05    5.7027043 0.0084037427    95.515645    9655.0815 
   72400    625.99889   0.33048872    4.3087666  0.018963208         0.05    5.7862357 0.0082920929    95.432865    9654.1317 
   72500    626.82278   0.33088937     4.313571  0.018963208         0.05    5.8618626 0.0081764098     96.54867    9653.0268 
   72600    627.63623   0.33143799    4.3189543  0.018963208         0.05     5.976183 0.0079995954      94.2572    9652.2437 
   72700    628.42967   0.33196777    4.3236861  0.018963208         0.05    5.4341564  0.009109506    96.903629    9651.0902 
   72800    629.33726   0.33051226    4.3290708  0.018963208         0.05     5.557366 0.0089572463    96.985976     9649.926 
   72900     630.2285   0.33125582    4.3345202  0.018963208         0.05    5.4559886 0.0089086871    97.273524    9648.7233 
   73000     631.1112   0.33030764    4.3404362  0.018963208         0.05    5.5879755 0.0082987021     94.63772    9647.8847 
   73100    631.95315   0.33016252    4.3455192  0.018963208         0.05    5.5730582 0.0088038213    96.584776    9646.7754 
   73200    632.81897    0.3302602    4.3511621  0.018963208         0.05    5.2689674  0.008773083    97.474628    9645.5467 
   73300    633.68694   0.33071401    4.3570325  0.018963208         0.05    5.3911972 0.0083832926    96.223314    9644.4871 
   73400    634.52856    0.3302408    4.3626373  0.018963208         0.05    5.6031579 0.0084514218    96.987568    9643.3242 
   73500     635.3633   0.33192849    4.3679017  0.018963208         0.05    5.0510793 0.0086256383    96.959363    9642.1655 
   73600     636.1933   0.33134719    4.3736225  0.018963208         0.05    5.6874084 0.0081109854    98.175321    9640.8464 
   73700    637.03247   0.33160624    4.3792989  0.018963208         0.05    5.6194809 0.0088221524    96.494717     9639.751 
   73800    637.89843   0.33067104    4.3850861  0.018963208         0.05    5.6342107 0.0086638061    97.224166    9638.5582 
   73900    638.73126   0.33151795    4.3899873  0.018963208         0.05    5.7187329 0.0083031363    97.435771    9637.3378 
   74000    639.57292   0.33079102    4.3963433  0.018963208         0.05    5.8242762 0.0083692608    95.481159    9636.3809 
   74100    640.40401   0.33096493     4.401259  0.018963208         0.05     5.402114  0.008673306    95.120344    9635.4734 
   74200     641.2659   0.33192102    4.4072879  0.018963208         0.05    5.1099179 0.0085619761    95.310253    9634.5393 
   74300      642.118   0.33094144    4.4135533  0.018963208         0.05      5.18969 0.0084770438    95.366792    9633.5972 
   74400     642.9629   0.32947682    4.4192996  0.018963208         0.05    5.0865467 0.0084027202     96.03813    9632.5636 
   74500     643.7837   0.32939618    4.4251973  0.018963208         0.05     4.956956 0.0082130309    96.522963    9631.4651 
   74600    644.67553   0.33078632    4.4311832  0.018963208         0.05    5.1507602 0.0094078763    96.719277    9630.3406 
   74700    645.61129   0.32971222    4.4366957  0.018963208         0.05    5.1366855 0.0092392995    97.568115    9629.1049 
   74800    646.54505   0.33126332    4.4430707  0.018963208         0.05    5.2528164  0.009309597      97.1738    9627.9212 
   74900    647.45805   0.33101207    4.4501452  0.018963208         0.05    4.9401761 0.0093415399     95.93017    9626.9027 
   75000    648.37757   0.32962063    4.4567024  0.018963208         0.05    5.1786125 0.0091195604    97.626207    9625.6609 
   75100    649.27865   0.33034909    4.4637321  0.018963208         0.05    5.2503374 0.0089139872    96.022564    9624.6302 
   75200    650.16963   0.33268053    4.4696478  0.018963208         0.05    5.0750948 0.0091499702    96.617326    9623.5207 
   75300    651.04368   0.32894753     4.476102  0.018963208         0.05    5.1926503 0.0086456178    97.647003    9622.2774 
   75400    651.88528   0.33139614    4.4819473  0.018963208         0.05    5.9983537 0.0079865478    96.166967    9621.2279 
   75500     652.6918   0.32967967    4.4876953  0.018963208         0.05    5.4203793 0.0081456246    96.357961    9620.1532 
   75600    653.49983   0.32946977    4.4930473  0.018963208         0.05    5.4929199  0.008048405    95.322253    9619.2165 
   75700    654.31499   0.32974686    4.4981519  0.018963208         0.05    5.8386239 0.0085613974    97.292071    9618.0201 
   75800    655.16527   0.33142274    4.5039846  0.018963208         0.05    5.9269118 0.0084325353     95.96138     9616.998 
   75900    655.99531   0.32990826    4.5099941  0.018963208         0.05    6.1116563 0.0081679352    94.825468    9616.1278 
   76000    656.80675   0.33053377    4.5158502  0.018963208         0.05    6.1823276 0.0080759901    95.896942    9615.1138 
   76100    657.60947   0.33105168    4.5209786  0.018963208         0.05    6.2510681 0.0079818982    95.003117    9614.2189 
   76200    658.40314    0.3304919    4.5267617  0.018963208         0.05    6.3304355 0.0078822362    95.223591    9613.2941 
   76300    659.18403   0.33009811    4.5319908  0.018963208         0.05    6.4176512 0.0075659477    95.893083    9612.2801 
   76400    659.93731   0.32994041    4.5371313  0.018963208         0.05    5.4929502 0.0075779224    97.518368     9611.056 
   76500    660.71417   0.33088984    4.5420035  0.018963208         0.05    6.0019054 0.0080185308    96.193698    9610.0028 
   76600    661.51236     0.330751    4.5466757  0.018963208         0.05    5.7276165 0.0080004462    95.933198    9608.9837 
   76700    662.31209   0.33105817    4.5516499  0.018963208         0.05    5.6885493 0.0079941601    96.921767    9607.8366 
   76800    663.10769   0.33079218    4.5571814  0.018963208         0.05    5.2153229 0.0078951263    95.775081    9606.8383 
   76900    663.90571   0.33253905    4.5614164  0.018963208         0.05    5.4919463 0.0084492842    97.087651    9605.6704 
   77000    664.74908   0.33068887    4.5675283  0.018963208         0.05    5.5372384 0.0084077528    94.219638    9604.8786 
   77100     665.5871   0.33067833    4.5721471  0.018963208         0.05    5.6251009  0.008352643    94.212971    9604.0871 
   77200    666.41652   0.33132731    4.5767902  0.018963208         0.05    5.7494936 0.0081253444      92.6389    9603.5105 
   77300    667.25081   0.33070023    4.5820346  0.018963208         0.05    5.7364059 0.0083453727    94.841486    9602.6333 
   77400    668.07971    0.3293838    4.5866682  0.018963208         0.05    5.8666834 0.0083797465    92.826805    9602.0284 
   77500    668.91237   0.33176832    4.5908983  0.018963208         0.05    5.9641835 0.0082635917    93.361092     9601.349 
   77600    669.73187   0.33150732    4.5959406  0.018963208         0.05    6.0345482 0.0081500989    96.406354    9600.2663 
   77700    670.55782   0.32963521     4.600544  0.018963208         0.05     5.734615  0.008237759    96.360839    9599.1896 
   77800    671.38641   0.33169976    4.6053092  0.018963208         0.05    5.9155165 0.0084396623    96.167254    9598.1378 
   77900    672.22538   0.33118956    4.6108889  0.018963208         0.05    5.9972506 0.0083280476    95.795075    9597.1338 
   78000    673.05126   0.33125509    4.6158764  0.018963208         0.05    6.1058049 0.0081844748    95.857974    9596.1216 
   78100    673.85901   0.33137111    4.6209419  0.018963208         0.05    6.1879522 0.0078803056    94.844445    9595.2409 
   78200    674.64668   0.33090074    4.6260996  0.018963208         0.05    6.2649653 0.0078449357    96.598679    9594.1341 
   78300    675.42663   0.33124156     4.631674  0.018963208         0.05    6.4197725 0.0077508053    96.141463    9593.0854 
   78400    676.20312   0.33226173     4.635771  0.018963208         0.05    6.4379452 0.0077207281    96.879679    9591.9435 
   78500    676.96903   0.33160823    4.6400374  0.018963208         0.05    6.5531435 0.0075746229    95.638415    9590.9592 
   78600    677.72217   0.33246053    4.6451829  0.018963208         0.05    6.4376556 0.0075714467    97.548805    9589.7347 
   78700    678.47665    0.3322564    4.6499477  0.018963208         0.05    6.5003124 0.0075041852    94.781155    9588.8612 
   78800    679.21867    0.3309224    4.6549512  0.018963208         0.05    6.8018293  0.007254589    96.298847    9587.7927 
   78900    679.99229   0.33225698    4.6599468  0.018963208         0.05    5.5162181 0.0085040948    96.834946    9586.6573 
   79000     680.8455   0.33184596    4.6660984  0.018963208         0.05    5.5653715 0.0084820618    94.877292    9585.7705 
   79100    681.68858   0.32988176    4.6708809  0.018963208         0.05    5.6520909 0.0083670146    95.650215    9584.7841 
   79200    682.52049   0.33170517    4.6759199  0.018963208         0.05    5.7242273 0.0082660275    95.420294    9583.8269 
   79300    683.32187   0.33178135    4.6813161  0.018963208         0.05    5.8532234 0.0078985735    96.582441    9582.7231 
   79400    684.11484    0.3309065    4.6865937  0.018963208         0.05    5.9070475 0.0078989489    96.394545    9581.6428 
   79500    684.89972   0.33086879    4.6919957  0.018963208         0.05    5.8166629 0.0078565948    96.119761    9580.5969 
   79600    685.68453   0.33277409    4.6976009  0.018963208         0.05     5.859169 0.0078041936    95.988898    9579.5675 
   79700    686.46107   0.33145968    4.7031645  0.018963208         0.05    5.9368233 0.0077185444    95.761677    9578.5666 
   79800    687.22685   0.33113264    4.7084896  0.018963208         0.05    6.1105979 0.0075745035    95.250168    9577.6302 
   79900    687.99144   0.33129276    4.7133237  0.018963208         0.05    5.9077596 0.0076853617    98.649489    9576.2769 
   80000    688.74995    0.3314579    4.7184534  0.018963208         0.05    6.3312963 0.0074234773    94.912223    9575.3836 
   80100     689.6351   0.33224434    4.7234427  0.018963208         0.05    5.4592743 0.0089772104    95.619665    9574.4003 
   80200    690.51954   0.33113026     4.729147  0.018963208         0.05    5.4237123 0.0087743306    97.129919    9573.2303 
   80300     691.3775   0.33082141    4.7351977  0.018963208         0.05    5.5326738 0.0083755619    97.019649    9572.0741 
   80400    692.18093   0.33117219    4.7399476  0.018963208         0.05    6.1839759 0.0076702537    96.808148     9570.944 
   80500    692.94447   0.33188366     4.744335  0.018963208         0.05    6.2107049 0.0070522426    96.599213    9569.8397 
   80600    693.71329   0.33129784    4.7486279  0.018963208         0.05    6.0922631  0.008086177    97.472453    9568.6297 
   80700    694.51738   0.33092457     4.753739  0.018963208         0.05    6.0113925 0.0079864582    95.728958     9567.633 
   80800    695.31167   0.33016807    4.7593754  0.018963208         0.05    6.0908215 0.0078902884    95.329966    9566.6859 
   80900    696.09369   0.33079991    4.7644807  0.018963208         0.05     6.195374 0.0076879431     95.14231    9565.7621 
   81000    696.86429   0.33234028    4.7699949  0.018963208         0.05    5.5175335 0.0081276865    96.433972    9564.6783 
   81100     697.6962    0.3307912    4.7758751  0.018963208         0.05    5.6027567 0.0083488662    97.546128    9563.4606 
   81200    698.52392   0.33096566    4.7810483  0.018963208         0.05    5.7100319 0.0082958787    96.744263    9562.3395 
   81300    699.35565   0.33145465    4.7860176  0.018963208         0.05    5.7057291 0.0084088311    96.187521    9561.2863 
   81400    700.18262    0.3304625    4.7909111  0.018963208         0.05    5.8332624 0.0082835676    96.996966    9560.1352 
   81500    701.02009   0.33089103    4.7960769  0.018963208         0.05     5.387368 0.0086032191    96.373747    9559.0595 
   81600    701.87133   0.33094851    4.8013253  0.018963208         0.05    5.4754841 0.0084254366    95.443897    9558.0977 
   81700    702.70258   0.33037588    4.8070466  0.018963208         0.05    5.6988385 0.0082714752    95.986877     9557.069 
   81800      703.523   0.33032221    4.8124793  0.018963208         0.05    5.8265496 0.0080478262    95.529785    9556.0963 
   81900    704.33612    0.3309466    4.8180377  0.018963208         0.05    5.8059688 0.0081094711    96.447831    9555.0117 
   82000    705.14259   0.33130869    4.8230259  0.018963208         0.05    5.8859434 0.0080099882    93.549751    9554.2868 
   82100    705.93576   0.33133844    4.8281417  0.018963208         0.05    5.9875384 0.0077359355    94.303929    9553.4655 
   82200    706.70559   0.33056495     4.833144  0.018963208         0.05     5.525845 0.0076365252    98.015688    9552.1952 
   82300    707.47339   0.33127755    4.8380781  0.018963208         0.05    5.5760078 0.0076947027    97.162095    9551.0255 
   82400    708.23968    0.3316039     4.842944  0.018963208         0.05     5.661055 0.0076237887    95.233364    9550.0883 
   82500    708.99664   0.33130496     4.847195  0.018963208         0.05    5.3597193 0.0075906925    96.268346    9549.0252 
   82600    709.75351    0.3305627    4.8514663  0.018963208         0.05    5.3085478 0.0075323495    95.679147    9548.0333 
   82700    710.50368   0.33190929    4.8559519  0.018963208         0.05    5.3862915 0.0074288801    96.292723    9546.9673 
   82800    711.26021    0.3309559    4.8615051  0.018963208         0.05    5.2383242 0.0084159397    96.925059    9545.8263 
   82900     712.1051   0.33074363    4.8666684  0.018963208         0.05    4.7581791 0.0087804868    96.302562    9544.7595 
   83000    712.98833   0.33044815    4.8723862  0.018963208         0.05    5.0745516 0.0089034939    96.935565    9543.6177 
   83100    713.86073   0.33098848    4.8778774  0.018963208         0.05    5.5644127 0.0079191501    95.104125    9542.6954 
   83200    714.65497   0.32923765    4.8829207  0.018963208         0.05    5.5826094 0.0079033628    96.437697    9541.6126 
   83300    715.44139   0.33168902    4.8889066  0.018963208         0.05      5.66737 0.0078106449    94.947008     9540.709 
   83400    716.21711    0.3313931    4.8946459  0.018963208         0.05    5.8175885 0.0077113052    96.991986    9539.5611 
   83500     716.9875   0.33059241    4.9006246  0.018963208         0.05    5.7178359 0.0077681528    97.355823    9538.3711 
   83600      717.805   0.33160248    4.9064977  0.018963208         0.05    5.1317384 0.0085928429    97.239651     9537.195 
   83700    718.69239    0.3334239    4.9125673  0.018963208         0.05    5.1242666 0.0092346377    98.362664    9535.8906 
   83800    719.60034   0.33145352    4.9192968  0.018963208         0.05    5.1219963 0.0090311113    97.676952     9534.665 
   83900    720.49539   0.33116723     4.925036  0.018963208         0.05    5.2105199 0.0089875245    96.539714    9533.5716 
   84000     721.3876   0.33179245    4.9306299  0.018963208         0.05     5.313637 0.0088417221    95.932014    9532.5499 
   84100     722.2586     0.331214    4.9368268  0.018963208         0.05    4.7121401 0.0092254673    95.610074    9531.5663 
   84200    723.13191   0.33224444    4.9421426  0.018963208         0.05    5.0386397   0.00861444    98.568186    9530.2412 
   84300    723.97501   0.33198343    4.9478253  0.018963208         0.05    5.1062667  0.007651643    96.623491    9529.1386 
   84400    724.75688   0.33101116    4.9528525  0.018963208         0.05    5.0389568 0.0078451228    97.898121      9527.89 
   84500    725.55657   0.33090092     4.957693  0.018963208         0.05    5.0848997 0.0083574239    95.541471    9526.9149 
   84600    726.40843    0.3311399    4.9634868  0.018963208         0.05    5.2832882  0.009029518    98.002611    9525.6553 
   84700    727.24148   0.33168696    4.9687099  0.018963208         0.05    5.4969964 0.0087816784    97.128502    9524.4954 
   84800    728.10906   0.33090754    4.9744892  0.018963208         0.05     5.675502 0.0086365654    97.280992    9523.3184 
   84900    728.89382   0.33166439    4.9793931  0.018963208         0.05    6.3843781 0.0075529844    97.614779    9522.1039 
   85000    729.69068   0.33221707    4.9838426  0.018963208         0.05    5.5893338 0.0082038329    95.808926    9521.0977 
   85100    730.50737   0.33048651     4.989262  0.018963208         0.05    5.6747489 0.0079338772     95.87912    9520.0832 
   85200    731.33866   0.33116443    4.9938471  0.018963208         0.05    5.0703661 0.0086717609     97.17371    9518.9194 
   85300    732.20164   0.33086871    4.9985815  0.018963208         0.05    5.1334167 0.0082674418    96.056122    9517.8844 
   85400    733.07628   0.33146426    5.0042143  0.018963208         0.05    5.2208256 0.0091858594    97.805254    9516.6499 
   85500    734.00279   0.32950039    5.0104691  0.018963208         0.05    5.3147114 0.0091665344    96.392794    9515.5762 
   85600    734.89569   0.32975673      5.01573  0.018963208         0.05    5.4089919 0.0090770687    95.080432    9514.6555 
   85700    735.80816    0.3304991    5.0214881  0.018963208         0.05    5.3195047 0.0091282178    97.380099    9513.4695 
   85800     736.7192   0.33203098    5.0274193  0.018963208         0.05    5.1779815 0.0093839537    96.505618    9512.3831 
   85900    737.64878   0.33006172    5.0334839  0.018963208         0.05    5.2154303 0.0088050769    96.370957    9511.3122 
   86000     738.5406   0.33137456    5.0380174  0.018963208         0.05    5.3358376 0.0089955722    95.430694      9510.35 
   86100    739.43482   0.33127405    5.0429865  0.018963208         0.05    5.4037107 0.0088595383    82.630965    9511.1105 
   86200    740.31557   0.33183115    5.0483118  0.018963208         0.05    5.3874326 0.0087405163    95.640247    9510.1214 
   86300    741.17852   0.33076982    5.0542894  0.018963208         0.05    5.4000252 0.0086069297    97.235571    9508.9505 
   86400    742.03341   0.33184384    5.0590066  0.018963208         0.05    5.4885677 0.0084868207    94.125715    9508.1393 
   86500    742.88035   0.33210599    5.0636704  0.018963208         0.05    4.8816814 0.0084830524    97.423821    9506.9476 
   86600    743.72385   0.33156568    5.0685554  0.018963208         0.05    5.0413726 0.0084131314    95.589221    9505.9642 
   86700    744.55522   0.33091414    5.0736693  0.018963208         0.05    4.6892215 0.0086101738    96.758324    9504.8474 
   86800    745.41143   0.33202085    5.0785351  0.018963208         0.05    4.8358339 0.0084390589    95.717227    9503.8491 
   86900    746.30456   0.33095045    5.0836636  0.018963208         0.05    4.6847803 0.0089481442    96.483085    9502.7635 
   87000    747.19667   0.33048765    5.0890507  0.018963208         0.05    5.3925612 0.0089024853    96.493251    9501.6769 
   87100    748.08308   0.32891186    5.0943178  0.018963208         0.05    5.3018466 0.0088554004    95.628167    9500.6887 
   87200    748.99074   0.32996122    5.0986874  0.018963208         0.05    5.3934977 0.0091590995    97.108578    9499.5334 
   87300    749.89908   0.32997512     5.104322  0.018963208         0.05    5.4840306 0.0089975829    95.400002    9498.5713 
   87400    750.76378   0.33169784    5.1084414  0.018963208         0.05    5.7901839 0.0084855086      96.3536    9497.5007 
   87500    751.60699   0.33044507    5.1135122  0.018963208         0.05    5.8745053 0.0083678114    95.328514    9496.5465 
   87600    752.43323   0.32997222    5.1187891  0.018963208         0.05    5.8123218 0.0082472355    95.664395    9495.5537 
   87700    753.24973   0.33042925    5.1239998  0.018963208         0.05    5.6399644 0.0084351174    97.218487     9494.387 
   87800    754.03677   0.32969819    5.1281376  0.018963208         0.05    6.3978125 0.0077882712    96.105798    9493.3443 
   87900    754.81134   0.33087067     5.132168  0.018963208         0.05    6.4687869 0.0077080153    95.463122    9492.3743 
   88000    755.57837   0.33067597    5.1367102  0.018963208         0.05     6.101756 0.0078316357    96.055198    9491.3373 
   88100    756.36174   0.33045119    5.1414165  0.018963208         0.05    6.1732011 0.0077637916    95.660555    9490.3446 
   88200    757.13307    0.3304702    5.1462987  0.018963208         0.05    6.2337318 0.0076714238     95.96441    9489.3177 
   88300    757.89594   0.33077941      5.15081  0.018963208         0.05    6.3056894 0.0075614614    94.640411    9488.4412 
   88400    758.65333   0.33136784     5.155225  0.018963208         0.05    6.3302701 0.0075088639    96.158369    9487.3923 
   88500    759.40501   0.33097396     5.159417  0.018963208         0.05     6.148102 0.0076030702    97.138872    9486.2353 
   88600    760.16231   0.33122997    5.1641979  0.018963208         0.05    6.2309721 0.0075274529    96.042309    9485.1995 
   88700    760.90204   0.33015517    5.1684649  0.018963208         0.05    6.3886758 0.0073845413    96.946096     9484.064 
   88800    761.64355   0.33000847    5.1733826  0.018963208         0.05    6.2426204 0.0074809588     96.60295    9482.9663 
   88900    762.38623   0.33073943    5.1773082  0.018963208         0.05    6.3167464 0.0074059661    96.739778    9481.8537 
   89000    763.12132   0.33133014    5.1818638  0.018963208         0.05    6.4539967 0.0073223466    95.824161    9480.8424 
   89100    763.84549   0.33119665    5.1864825  0.018963208         0.05    6.4591868 0.0071948172    96.089461    9479.8016 
   89200    764.57537    0.3314993     5.190619  0.018963208         0.05    4.7625005 0.0073892648    96.855384    9478.6768 
   89300    765.32664   0.33040561    5.1958368  0.018963208         0.05    4.8375732 0.0075165956    97.657598    9477.4657 
   89400    766.07563   0.33128895    5.2002446  0.018963208         0.05    5.6451311 0.0074476872    95.247983    9476.5188 
   89500    766.83746   0.33160021    5.2049537  0.018963208         0.05     4.824399  0.007846176    98.715218    9475.1966 
   89600    767.61723   0.32938116    5.2099573  0.018963208         0.05    4.9794437 0.0075169226     94.95107    9474.2831 
   89700    768.38136   0.33065805    5.2147355  0.018963208         0.05    5.3078135 0.0075594459     96.25752    9473.2242 
   89800    769.15384   0.33141168    5.2194819  0.018963208         0.05    5.4804505 0.0087236721    96.926538    9472.0927 
   89900    770.03722   0.32992525    5.2256004  0.018963208         0.05    4.8827002 0.0089137027    98.895161    9470.7535 
   90000    770.93358   0.33025558    5.2313663  0.018963208         0.05    4.8818573 0.0090479618    97.983494    9469.5102 
   90100    771.84734   0.33143861    5.2372121  0.018963208         0.05    4.9745964 0.0093974456    96.259442    9468.4519 
   90200    772.82282   0.32995803    5.2445844  0.018963208         0.05    5.4395769 0.0091344814    95.453193    9467.4823 
   90300    773.77576   0.33063642    5.2503764  0.018963208         0.05    4.8854967  0.010023931    97.797113    9466.2594 
   90400    774.76227   0.33032025    5.2565569  0.018963208         0.05    5.0029997 0.0097856041    95.712203    9465.2612 
   90500    775.70966   0.32944912     5.263325  0.018963208         0.05    5.0932609 0.0091272197    96.973262    9464.1263 
   90600    776.64712   0.33117951    5.2691479  0.018963208         0.05    4.8695908 0.0096857288    97.860478    9462.8978 
   90700    777.61732   0.33122772    5.2760436  0.018963208         0.05    4.9755258 0.0096645527    97.098777    9461.7501 
   90800    778.56159   0.33088298     5.282732  0.018963208         0.05    5.1711052 0.0090927845    97.480246    9460.5623 
   90900    779.46192   0.33224076    5.2887876  0.018963208         0.05    5.2705078 0.0091781618    97.349089    9459.3887 
   91000    780.35738   0.33200472    5.2945191  0.018963208         0.05    5.4966717 0.0089974133    96.115576    9458.3471 
   91100     781.2586   0.33088156     5.300519  0.018963208         0.05    5.4676069  0.008766068    97.452297    9457.1631 
   91200    782.10191   0.33094171    5.3057757  0.018963208         0.05    5.5457047 0.0082286634    97.708922    9455.9526 
   91300    782.95297   0.33067475    5.3116347  0.018963208         0.05    5.6181482 0.0087133255    97.345293    9454.7806 
   91400    783.85833   0.32989188    5.3184545  0.018963208         0.05    5.2214121 0.0091602217    97.723446    9453.5693 
   91500    784.72316   0.33034099     5.324742  0.018963208         0.05    5.6792784  0.008445072    97.306088    9452.4021 
   91600    785.55853   0.33107524    5.3304831  0.018963208         0.05    5.5293705 0.0082534904     96.19361     9451.353 
   91700    786.38322   0.33109368    5.3355765  0.018963208         0.05    5.4666398 0.0082985591    98.067779    9450.1072 
   91800    787.20665   0.33121131    5.3408475  0.018963208         0.05    5.5488505 0.0081665119    95.812515    9449.0993 
   91900    788.01953   0.33044625     5.346698  0.018963208         0.05    5.6498455 0.0080920282     96.73255    9447.9932 
   92000    788.83897   0.33213424     5.352231  0.018963208         0.05    5.7315436 0.0084281469    95.731624     9446.994 
   92100     789.6684   0.33144877    5.3570174  0.018963208         0.05    5.6500809 0.0088416508    95.058754    9446.0676 
   92200    790.54057    0.3305138    5.3621419  0.018963208         0.05     5.532764 0.0084123052    96.663462    9444.9689 
   92300    791.37055    0.3306555    5.3672356  0.018963208         0.05    5.5985903 0.0075284021     97.18087    9443.8162 
   92400    792.13566   0.33211308    5.3724919  0.018963208         0.05    5.6757758 0.0076440604    97.498215    9442.6309 
   92500    792.89778   0.33230518    5.3772567  0.018963208         0.05    5.7907237 0.0075912339    94.958185    9441.7151 
   92600    793.65135   0.33112459    5.3819328  0.018963208         0.05    5.8534219 0.0073819667    95.909375    9440.6967 
   92700    794.44811   0.33058803    5.3868689  0.018963208         0.05    5.9531638 0.0081936072    97.122925    9439.5507 
   92800    795.26354   0.33071985    5.3927131  0.018963208         0.05    6.0300667 0.0080979849    95.577982    9438.5676 
   92900    796.06865   0.33108381    5.3979023  0.018963208         0.05    6.1175483 0.0079908508     95.66577    9437.5751 
   93000    796.86242    0.3311557    5.4033065  0.018963208         0.05    6.1798163 0.0079742034    95.516101    9436.5984 
   93100    797.72801   0.33168653    5.4091246  0.018963208         0.05    4.7027571 0.0085678061    96.635624    9435.5033 
   93200    798.59243   0.33059852    5.4160791  0.018963208         0.05    4.8598967 0.0086512982    98.603779    9434.2075 
   93300    799.46025   0.33006026    5.4222179  0.018963208         0.05    5.0268931 0.0083173977    96.912451    9433.0843 
   93400     800.2939   0.33117619    5.4276266  0.018963208         0.05    5.0464358 0.0081768859    99.715828    9431.6796 
   93500     801.1596   0.33151097    5.4335198  0.018963208         0.05    4.8686776 0.0093667607    97.645185     9430.482 
   93600    802.08428   0.33088555    5.4396089  0.018963208         0.05    5.1588243 0.0091565952    96.291618    9429.4243 
   93700    802.97338   0.33011054    5.4455937  0.018963208         0.05    5.7926188 0.0083887112    96.369739    9428.3583 
   93800    803.81141   0.33035469    5.4509144  0.018963208         0.05    5.8399891 0.0083275177    96.713947    9427.2568 
   93900    804.63898   0.33045399    5.4568927  0.018963208         0.05     5.924966 0.0080352845     94.79043    9426.3579 
   94000    805.45367   0.33040789    5.4621641  0.018963208         0.05    5.9967869  0.008113273    95.693031    9425.3627 
   94100    806.25807   0.33103886    5.4678796  0.018963208         0.05    6.1498867 0.0079112067    94.217944     9424.525 
   94200    807.05017   0.33099131    5.4734804  0.018963208         0.05    6.1462619 0.0078571623    96.078367    9423.4891 
   94300    807.82854   0.33145159    5.4790393  0.018963208         0.05    5.9423326 0.0078691834    96.517366    9422.4078 
   94400    808.60869   0.33037396    5.4840216  0.018963208         0.05    6.1917502  0.007682743    95.930258    9421.3874 
   94500    809.38439   0.33115211    5.4889444  0.018963208         0.05    6.1836984 0.0077517018    96.282622    9420.3304 
   94600    810.15644   0.33266487    5.4942478  0.018963208         0.05    6.2539756 0.0076749262    96.200935    9419.2819 
   94700    810.91992   0.33168245    5.4995143  0.018963208         0.05    6.3297129 0.0075879423     95.15172    9418.3429 
   94800    811.67988    0.3309309    5.5044288  0.018963208         0.05    5.7432139 0.0078519593    96.258713    9417.2884 
   94900    812.45319   0.33027917    5.5098224  0.018963208         0.05    5.8065276 0.0077363913    95.202647    9416.3437 
   95000    813.20556   0.32980019    5.5151729  0.018963208         0.05    6.0362017 0.0074568723    93.394312    9415.5926 
   95100    813.99704   0.33276139    5.5202739  0.018963208         0.05    6.1125237 0.0081014399    92.130831    9414.9806 
   95200    814.80356   0.33134172    5.5251689  0.018963208         0.05    6.1789207 0.0080187565    92.911503    9414.2808 
   95300    815.63265   0.33223361    5.5305006  0.018963208         0.05    5.1807065 0.0084412053    92.907202    9413.5808 
   95400    816.45932   0.33286872     5.535738  0.018963208         0.05    5.6694359 0.0080949364    94.351979    9412.7237 
   95500    817.26434    0.3314268    5.5405699  0.018963208         0.05    5.7179832 0.0080045264    92.374401     9412.081 
   95600    818.06052   0.33086607    5.5461783  0.018963208         0.05    5.8891919 0.0078980411    95.425418      9411.11 
   95700    818.84659   0.33037617    5.5518598  0.018963208         0.05    5.7856582 0.0078054297    96.516433    9410.0269 
   95800    819.62675   0.33021228     5.557635  0.018963208         0.05    5.5449758  0.007915777    96.803433    9408.9149 
   95900    820.41851   0.33060301     5.563056  0.018963208         0.05    5.6180519  0.007884194    96.253809    9407.8587 
   96000    821.20141   0.32943273    5.5683526  0.018963208         0.05    5.7010323 0.0076533395    94.996619     9406.932 
   96100    821.96158   0.33018937    5.5730931  0.018963208         0.05    5.7770492 0.0076380931    97.090865    9405.7914 
   96200    822.71739   0.33068707    5.5782653  0.018963208         0.05    5.8537678 0.0074640933    96.802249      9404.68 
   96300    823.52571   0.33153701    5.5840088  0.018963208         0.05    5.8854684 0.0080792004    97.467878    9403.5025 
   96400     824.3216   0.33201741    5.5900858  0.018963208         0.05    5.8623432 0.0081209459    96.639743    9402.4077 
   96500    825.13758   0.33128593    5.5964167  0.018963208         0.05    6.0182821 0.0079216992    95.713557    9401.4068 
   96600    825.92471   0.33011018    5.6018884  0.018963208         0.05    5.8842684 0.0078192199    97.627162    9400.2143 
   96700     826.6949   0.33108773    5.6070622  0.018963208         0.05    5.8814363 0.0075213544    96.181698    9399.1659 
   96800    827.43886    0.3305023    5.6119831  0.018963208         0.05    5.9549789 0.0075983644    95.966518    9398.1393 
   96900    828.20119   0.33233856    5.6168539  0.018963208         0.05    5.6073871 0.0077043979    97.586594    9396.9514 
   97000    828.99932   0.33030911    5.6227076  0.018963208         0.05    5.3206408 0.0082625076    95.309798    9395.9918 
   97100    829.82071   0.33045598     5.628648  0.018963208         0.05    5.3136145 0.0082527873    96.025971    9394.9592 
   97200    830.66778   0.33163253    5.6342883  0.018963208         0.05    5.2943259 0.0085128302    95.376789    9393.9925 
   97300    831.46892   0.33358664    5.6397111  0.018963208         0.05    4.9495286 0.0075394269    96.717805    9392.8906 
   97400    832.22102   0.33244252    5.6453025  0.018963208         0.05    5.0247388 0.0075146875    95.789824    9391.8818 
   97500    832.96997    0.3303235    5.6512873  0.018963208         0.05    6.1285538 0.0074476941     95.71513    9390.8804 
   97600    833.72049   0.33017719    5.6569271  0.018963208         0.05    6.1650057 0.0075196619    97.341882    9389.7175 
   97700    834.47614   0.33006557    5.6631443  0.018963208         0.05    6.3704545 0.0076731843    96.132583    9388.6742 
   97800    835.24013   0.33156069    5.6690196  0.018963208         0.05    6.4661391 0.0075983335    95.601945    9387.6843 
   97900    835.99612   0.33168376    5.6741888  0.018963208         0.05    6.5417384 0.0075134959     95.15852     9386.739 
   98000     836.7425   0.33048718    5.6796437  0.018963208         0.05    5.5650569 0.0082284808    94.210918    9385.8909 
   98100    837.56266   0.33197714    5.6854932  0.018963208         0.05    5.6740713 0.0081447304    95.789933    9384.8815 
   98200    838.40633   0.33207863    5.6913499  0.018963208         0.05     5.735209  0.008359519    97.219253     9383.731 
   98300    839.21655    0.3313709    5.6970195  0.018963208         0.05    5.3951771 0.0078324583    96.933773    9382.6086 
   98400    839.99216   0.33105529    5.7025741  0.018963208         0.05    5.1886583 0.0077654857    96.671884     9381.512 
   98500    840.76546   0.33057858    5.7079251  0.018963208         0.05    5.2646556 0.0076923082    95.974731    9380.4843 
   98600    841.53105   0.33036124    5.7134293  0.018963208         0.05    5.3692129 0.0075982169    96.227309    9379.4315 
   98700    842.29271   0.33170909    5.7193084  0.018963208         0.05    5.5199809 0.0076343012    97.118404    9378.2917 
   98800    843.09486   0.33141736    5.7249839  0.018963208         0.05    5.6303154 0.0081946774    98.588505    9377.0121 
   98900    843.92159    0.3305305    5.7307714  0.018963208         0.05    5.2522178 0.0085324886    98.088649    9375.7801 
   99000    844.76887   0.33316242    5.7367198  0.018963208         0.05    5.2683138 0.0088501083    96.597344    9374.6918 
   99100    845.65832   0.33085212    5.7431015  0.018963208         0.05    5.3671921 0.0089519226    99.203591    9373.3563 
   99200    846.53255   0.33021595    5.7491611  0.018963208         0.05     5.428416 0.0089680508    97.562033    9372.1756 
   99300    847.42517   0.33083892    5.7553693  0.018963208         0.05    5.5626605 0.0088579475    97.355145    9371.0148 
   99400    848.30125    0.3308775    5.7604075  0.018963208         0.05    5.6667959 0.0086316372    96.708149    9369.9167 
   99500    849.14434   0.33002388     5.765802  0.018963208         0.05    5.0495445 0.0085861814    98.020476    9368.6933 
   99600    849.99633   0.33162309    5.7712471  0.018963208         0.05    5.1472154 0.0084977619    97.504947    9367.5192 
   99700    850.84009   0.33048319    5.7766074  0.018963208         0.05    4.9796838 0.0088654877    95.586956    9366.5311 
   99800    851.73533   0.33064198    5.7818712  0.018963208         0.05    5.1259561  0.009010441    97.061454    9365.3996 
   99900    852.63044   0.33078513    5.7872119  0.018963208         0.05    5.1624342 0.0092089495    96.081801    9364.3629 
  100000    853.53032   0.33106084    5.7926187  0.018963208         0.05    5.2749826 0.0088210955    95.608592    9363.3726 
  100100    854.44327   0.33156974    5.7976892  0.018963208         0.05    5.2897483 0.0090912904    95.242901    9362.4183 
  100200    855.35662    0.3301282    5.8037122  0.018963208         0.05    4.7998875 0.0091805021    94.883774    9361.4995 
  100300    856.30517   0.33006868    5.8096319  0.018963208         0.05     5.025412  0.009522179    97.627548    9360.3147 
  100400    857.25034   0.33073978     5.815619  0.018963208         0.05    5.1146213 0.0093694815    97.477958    9359.1443 
  100500    858.18162   0.33064497    5.8208585  0.018963208         0.05    5.1387407 0.0093812239    98.607859     9357.869 
  100600    859.03109   0.33044487    5.8255704  0.018963208         0.05    4.9784488 0.0077143768    96.915272    9356.7525 
  100700    859.80297   0.33002782    5.8304851  0.018963208         0.05    5.0547273 0.0077031746    96.077179    9355.7167 
  100800    860.57155   0.33032283    5.8349204  0.018963208         0.05    5.1748988 0.0086338638    97.234647    9354.5702 
  100900    861.44354   0.33082917    5.8405342  0.018963208         0.05    5.2405626 0.0092574965    97.337996    9353.4143 
  101000    862.35452   0.33152326    5.8464632  0.018963208         0.05    5.3328513 0.0084812785    94.571762    9352.5261 
  101100    863.20218   0.33049052    5.8514662  0.018963208         0.05    5.4185811 0.0085066706    96.533671    9351.4465 
  101200    864.00241   0.33035462    5.8559723  0.018963208         0.05     6.268286 0.0071793564    96.333638    9350.3861 
  101300     864.7224   0.33134213    5.8599718  0.018963208         0.05    5.7467675 0.0074289005     97.47644    9349.2178 
  101400    865.46305   0.33079793    5.8641411  0.018963208         0.05    5.8721108  0.007343277    96.830631    9348.1103 
  101500    866.19512   0.33016442    5.8691384  0.018963208         0.05    5.9593091 0.0072678308    95.095004    9347.1699 
  101600    866.92139   0.33055144    5.8739595  0.018963208         0.05    5.4476987 0.0080142063    97.400768    9346.0091 
  101700    867.77628   0.33052457    5.8792376  0.018963208         0.05    5.4581211 0.0089318968    98.518084    9344.7458 
  101800    868.66302   0.32922505    5.8850523  0.018963208         0.05    5.1414152  0.008800782    95.171929    9343.7978 
  101900    869.53789   0.33034103    5.8900612  0.018963208         0.05    5.2857957 0.0086877769    95.306268    9342.8366 
  102000    870.40937    0.3302404    5.8960023  0.018963208         0.05     5.395967 0.0090946438    95.896218    9341.8184 
  102100    871.31012   0.33004007    5.9019644  0.018963208         0.05    5.4246901 0.0089338515    96.162072    9340.7747 
  102200    872.19944   0.33062726    5.9076356  0.018963208         0.05    4.8658729 0.0091133615    96.375784    9339.7108 
  102300    873.10888   0.33138327    5.9133343  0.018963208         0.05    4.7359438 0.0090581303    94.366605    9338.8409 
  102400    874.03585    0.3290096    5.9206548  0.018963208         0.05    4.9128552 0.0092936184    96.752766    9337.7414 
  102500    874.97923   0.32883478     5.926462  0.018963208         0.05    4.8430463 0.0096397285     98.63209    9336.4697 
  102600    875.93684   0.32983122    5.9330201  0.018963208         0.05    4.9316391 0.0094284426    95.239094    9335.5144 
  102700    876.85574   0.32961731    5.9386433  0.018963208         0.05    5.0148316 0.0088071354    96.396494    9334.4487 
  102800    877.72974   0.33029082    5.9439933  0.018963208         0.05     5.091748 0.0086668898    96.060654    9333.4148 
  102900    878.57675   0.33072779    5.9492539  0.018963208         0.05    5.2047959 0.0084635502    97.457619    9332.2507 
  103000    879.41667   0.33001505    5.9544252  0.018963208         0.05    5.3516466 0.0084389787    96.508993    9331.1748 
  103100    880.25508   0.32996363    5.9602219  0.018963208         0.05    5.4452123 0.0083233591    95.376161     9330.206 
  103200    881.10031    0.3292083    5.9662292  0.018963208         0.05    5.5334065 0.0084500665    96.423264    9329.1381 
  103300    881.94013   0.33082604    5.9707787  0.018963208         0.05    5.6364484 0.0083072578    95.954377    9328.1143 
  103400    882.76046   0.33077077    5.9761853  0.018963208         0.05    5.7803356 0.0081404549    96.268986    9327.0608 
  103500    883.56863   0.33164327    5.9814657  0.018963208         0.05    5.8099941 0.0079695055    95.880128     9326.044 
  103600    884.40754   0.33147807    5.9865715  0.018963208         0.05    5.4998327 0.0086355141    96.337179    9324.9842 
  103700    885.26754   0.33032827    5.9916556  0.018963208         0.05    5.6231402 0.0086429085    96.487103    9323.9105 
  103800    886.12431   0.32990709    5.9969659  0.018963208         0.05    5.7885887 0.0085257967    94.647479    9323.0109 
  103900    886.96395   0.32889984    6.0023449  0.018963208         0.05    6.2154501 0.0080353113    95.335079    9322.0452 
  104000    887.75746   0.33052614    6.0068396  0.018963208         0.05    5.4131138 0.0079676108    96.250186    9320.9934 
  104100    888.55189    0.3305435    6.0121021  0.018963208         0.05    5.4172772   0.00792199    94.151049    9320.1411 
  104200    889.34102   0.33147959    6.0172061  0.018963208         0.05    5.1141731 0.0078575288    96.047741     9319.108 
  104300    890.17184   0.33177938     6.022727  0.018963208         0.05    5.2619966 0.0085478112    96.029819    9318.0765 
  104400    891.06078   0.32981607    6.0283091  0.018963208         0.05    5.3257851 0.0089480793    95.981276    9317.0496 
  104500    891.94109   0.33144042     6.033518  0.018963208         0.05     5.317325 0.0087763232    96.581395    9315.9671 
  104600    892.80426    0.3310769    6.0389222  0.018963208         0.05     5.403962 0.0087295934    96.813958    9314.8634 
  104700    893.63838   0.33079513    6.0442375  0.018963208         0.05     6.076114 0.0077139123    95.433147    9313.8877 
  104800    894.40713   0.33139086    6.0484829  0.018963208         0.05    6.0740345 0.0076642916    96.599769    9312.8038 
  104900    895.17113   0.33125686    6.0531151  0.018963208         0.05    6.1971812 0.0075678257    95.777203    9311.7958 
  105000    895.92603   0.33136216    6.0573941  0.018963208         0.05     6.447414 0.0073435548    96.100161    9310.7578 
  105100    896.69844   0.33150351     6.062459  0.018963208         0.05    4.8871949 0.0078820611    98.401364    9309.5126 
  105200    897.48407   0.33045625    6.0676115  0.018963208         0.05    5.8367836  0.007820322    95.697987     9308.512 
  105300    898.26085   0.33109198     6.072643  0.018963208         0.05    4.9792232 0.0077818425    96.040263    9307.4797 
  105400    899.03653    0.3295562    6.0775392  0.018963208         0.05    5.0236439 0.0077434544    95.665573     9306.482 
  105500    899.81306   0.32920222    6.0816953  0.018963208         0.05    5.0696744 0.0084784007    96.674781    9305.3917 
  105600    900.67865   0.33194495    6.0866897  0.018963208         0.05    5.4790528 0.0082671839    96.862251    9304.2845 
  105700    901.49475    0.3309429    6.0915272  0.018963208         0.05    5.2695289 0.0081425849    95.940571    9303.2614 
  105800    902.27284   0.33014557    6.0963734  0.018963208         0.05    6.1643233 0.0075841429    96.145518    9302.2195 
  105900    903.02611   0.32947046    6.1013323  0.018963208         0.05     6.252273 0.0074851117    96.041913    9301.1871 
  106000    903.77111   0.33054249    6.1058601  0.018963208         0.05    6.3294898 0.0074073153    93.682517    9300.3758 
  106100    904.50823   0.33080716    6.1104804  0.018963208         0.05     6.413563 0.0073087495    94.904857    9299.4481 
  106200    905.23276   0.33214179    6.1141577  0.018963208         0.05    6.1061464 0.0070874568     95.74443    9298.4425 
  106300    905.95497   0.33147239    6.1183703  0.018963208         0.05     6.535837 0.0072272988    97.950887     9297.239 
  106400     906.6753   0.33161938    6.1234949  0.018963208         0.05    6.5830495 0.0071746207    95.365144    9296.2684 
  106500    907.38951   0.32966617    6.1284146  0.018963208         0.05    6.6717772 0.0070023336    95.961556    9295.2429 
  106600     908.0959   0.33032872    6.1328197  0.018963208         0.05    5.9029199 0.0070540771    94.691155    9294.3345 
  106700    908.79901    0.3308815    6.1376195  0.018963208         0.05    5.9112597 0.0070022545    95.593056    9293.3425 
  106800    909.49703   0.33079399    6.1415611  0.018963208         0.05    5.4925598 0.0069494047     95.10378    9292.3954 
  106900    910.23774   0.33141018     6.145779  0.018963208         0.05    5.5392991 0.0076875667    97.249481    9291.2542 
  107000    911.00636   0.33170116    6.1506215  0.018963208         0.05    5.4283039 0.0076811492    96.985505    9290.1366 
  107100    911.76843   0.32988488     6.155197  0.018963208         0.05    4.9371482 0.0076575106    96.736298    9289.0413 
  107200     912.5345   0.33064956     6.159769  0.018963208         0.05     4.985978 0.0076507495    98.400509    9287.8006 
  107300     913.3072   0.33061711    6.1642417  0.018963208         0.05    5.0745159 0.0082144907      96.6346    9286.7147 
  107400    914.13229   0.32970261    6.1686596  0.018963208         0.05     4.697965 0.0082863062    95.576261    9285.7242 
  107500    914.96979   0.33019349    6.1738634  0.018963208         0.05    4.8959094 0.0091836224    96.295774    9284.6687 
  107600    915.88642   0.33072455    6.1792465  0.018963208         0.05    4.9680718 0.0087928596    96.208349     9283.621 
  107700    916.78055   0.33161228    6.1842768  0.018963208         0.05    4.8802835 0.0090079342    98.088351    9282.4083 
  107800    917.68153   0.33217282     6.189518  0.018963208         0.05    4.9807038  0.008679125    95.987426    9281.3807 
  107900    918.53102   0.33003747    6.1941125  0.018963208         0.05     4.995906 0.0092660688    96.226868    9280.3315 
  108000    919.44276   0.33227709    6.1995589  0.018963208         0.05     5.086236 0.0091468127    94.792379    9279.4123 
  108100    920.35146   0.33054222    6.2052135  0.018963208         0.05    5.2968618 0.0090363159    94.304481    9278.5379 
  108200    921.25022   0.33060645    6.2108657  0.018963208         0.05    5.3827254 0.0089285616    95.252526    9277.5761 
  108300    922.13553   0.33022435    6.2170426  0.018963208         0.05    5.4819344 0.0087990172    95.876906    9276.5579 
  108400    923.01089   0.33126231    6.2226682  0.018963208         0.05    5.5629952 0.0086979393    96.133222    9275.5168 
  108500    923.86646   0.33177895    6.2284526  0.018963208         0.05       5.6442 0.0087395922    96.553159    9274.4384 
  108600    924.73489    0.3318954    6.2335051  0.018963208         0.05    5.6969039 0.0086186986    95.591596    9273.4457 
  108700    925.59005   0.33087309    6.2393925  0.018963208         0.05    5.7782456 0.0084107563    95.258778    9272.4829 
  108800    926.42843   0.33219203    6.2446539  0.018963208         0.05    5.8384799 0.0083537379    95.867812    9271.4652 
  108900    927.25855   0.33161488    6.2506578  0.018963208         0.05    5.1149827 0.0082688593    97.011571    9270.3469 
  109000    928.07922   0.33212969    6.2558122  0.018963208         0.05    5.0661801 0.0081916604    95.422031    9269.3691 
  109100    928.89803   0.33181519    6.2613976  0.018963208         0.05    5.5937171 0.0081809661    97.119709    9268.2416 
  109200    929.71391   0.33264333    6.2662072  0.018963208         0.05    5.6733939   0.00800587    96.210468    9267.1937 
  109300    930.52321   0.33090274    6.2719477  0.018963208         0.05    5.7451208 0.0081704814    97.933322    9265.9967 
  109400    931.33647   0.33143305    6.2774932  0.018963208         0.05    5.8215836 0.0080784649    96.350236    9264.9367 
  109500     932.1399   0.33048842    6.2831001  0.018963208         0.05    5.9019266 0.0079809423    94.490738    9264.0428 
  109600    932.93379   0.33136389    6.2882212  0.018963208         0.05    5.9779221 0.0078896203    95.839312    9263.0276 
  109700    933.71806   0.33054817    6.2937018  0.018963208         0.05    6.0614575 0.0077706813    95.730968    9262.0219 
  109800    934.49221    0.3303091    6.2988692  0.018963208         0.05    6.1072854 0.0077582915    96.317688    9260.9646 
  109900    935.27044    0.3311589    6.3038647  0.018963208         0.05    6.0945393 0.0077037748    97.102643    9259.8394 
  110000     936.0408   0.33030794    6.3096751  0.018963208         0.05    6.1581852 0.0076567137    95.238554    9258.8774 
  110100    936.78415   0.33120452    6.3143247  0.018963208         0.05     5.208634 0.0073158494    96.767766    9257.7811 
  110200    937.51605   0.33190164    6.3192093  0.018963208         0.05    5.2769179 0.0072085776     98.57773    9256.5317 
  110300    938.26968   0.32912649    6.3241541  0.018963208         0.05      5.25203 0.0089769268    96.243406    9255.4813 
  110400    939.09804   0.33032902    6.3297643  0.018963208         0.05    5.5533157 0.0082672349    95.441986    9254.5011 
  110500    939.92357   0.33228045    6.3353893  0.018963208         0.05    5.5813049 0.0081947425     94.20091     9253.632 
  110600    940.73736   0.33193846    6.3406552  0.018963208         0.05    5.0872445 0.0078879945     96.81769    9252.5318 
  110700    941.46141   0.33177195    6.3451837  0.018963208         0.05    5.1617116 0.0071404461    97.768618     9251.351 
  110800    942.17307   0.33224535    6.3501731  0.018963208         0.05    5.2415268 0.0070843241     96.07949    9250.3147 
  110900    942.87973   0.33240964    6.3546021  0.018963208         0.05    4.9941842 0.0070404002    96.024674    9249.2833 
  111000    943.58152   0.33138991    6.3590801  0.018963208         0.05    5.4920008 0.0069861074    94.175783    9248.4156 
  111100    944.28253   0.33023109    6.3636127  0.018963208         0.05    6.9731093 0.0070498892    96.655354    9247.3295 
  111200    945.03258   0.33073657    6.3687402  0.018963208         0.05    5.6665693  0.007496161     98.69213     9246.073 
  111300    945.77961   0.33182966    6.3730819  0.018963208         0.05    5.5127439 0.0074414402    95.367052    9245.0989 
  111400     946.5751   0.33154112    6.3784654  0.018963208         0.05    5.0596225 0.0093645182    97.392807    9243.9507 
  111500    947.50935   0.33178454    6.3853015  0.018963208         0.05    5.0470769 0.0089817665    97.041109    9242.8324 
  111600    948.42166   0.33135228    6.3914944  0.018963208         0.05    5.2002594 0.0089853059    98.000802    9241.6339 
  111700    949.32955   0.33278215    6.3970652  0.018963208         0.05    5.2516889 0.0091037004    97.840937     9240.449 
  111800    950.22741   0.33117311    6.4029735  0.018963208         0.05    5.3416835 0.0088442269    96.051788    9239.4156 
  111900    951.11192   0.33075192    6.4086577  0.018963208         0.05    5.4143122 0.0088174266    97.169726    9238.2872 
  112000    951.98549   0.33115832    6.4145586  0.018963208         0.05    5.6538988 0.0084197704    94.525747    9237.3872 
  112100    952.89132   0.33001114    6.4204511  0.018963208         0.05    5.0362505 0.0091686698    96.846953     9236.286 
  112200    953.81331   0.33030348    6.4265647  0.018963208         0.05    5.1575647 0.0086158699    97.474243    9235.1324 
  112300    954.69774   0.33102985    6.4327484  0.018963208         0.05    5.2494822 0.0087843914    98.306665    9233.9104 
  112400    955.58734   0.33121991    6.4386809  0.018963208         0.05     5.555037 0.0087652928    97.339804    9232.7685 
  112500    956.48111   0.32994922    6.4453389  0.018963208         0.05    5.3895583 0.0088151597    96.423176    9231.7038 
  112600    957.34802   0.33116287    6.4512667  0.018963208         0.05    5.5668446 0.0087136371    97.605079    9230.5403 
  112700    958.21497   0.33033307    6.4577087  0.018963208         0.05     5.640439 0.0087596458    96.370669    9229.4802 
  112800    959.07217   0.33206948    6.4639786  0.018963208         0.05    5.7735593 0.0083851964    96.079292     9228.445 
  112900     959.8891   0.33084185    6.4703192  0.018963208         0.05    5.8155348 0.0082253613    97.179271    9227.3172 
  113000    960.70783   0.33083731    6.4757421  0.018963208         0.05     5.946718 0.0080877881    95.557731    9226.3267 
  113100    961.51968   0.33192376    6.4809063  0.018963208         0.05    5.7358125  0.008069998    96.270666    9225.2753 
  113200    962.32873   0.33167866    6.4866717  0.018963208         0.05    5.7314924 0.0081800964    96.691496    9224.1885 
  113300    963.14275   0.33051511    6.4921556  0.018963208         0.05    5.8166181  0.008063305    95.242533    9223.2249 
  113400    963.93694   0.33058066    6.4978939  0.018963208         0.05     5.800914 0.0079288183    96.388807    9222.1635 
  113500    964.72677    0.3305878    6.5035919  0.018963208         0.05    5.8742478 0.0078510941    95.914332    9221.1423 
  113600     965.5039   0.32980821    6.5084225  0.018963208         0.05    5.9889081 0.0077469241    96.952863    9220.0339 
  113700    966.27386   0.33138968    6.5138675  0.018963208         0.05    6.0564809 0.0076571529    96.267329    9218.9829 
  113800    967.01591   0.33148725    6.5191041  0.018963208         0.05    6.6683721 0.0071282447    97.272396    9217.8483 
  113900    967.88807   0.33169595    6.5250732  0.018963208         0.05    5.1298661 0.0092954547    96.685322    9216.7625 
  114000    968.74633   0.33038601    6.5305907  0.018963208         0.05    5.2061851 0.0081420561    97.298707     9215.626 
  114100    969.55935   0.33135746    6.5358976  0.018963208         0.05    5.2917604 0.0080856348    95.386181    9214.6498 
  114200    970.36162   0.33081717    6.5417698  0.018963208         0.05    5.4514504 0.0079924731    96.695151    9213.5634 
  114300    971.14768   0.33033553    6.5467051  0.018963208         0.05    5.0658816  0.007870024    97.035922    9212.4489 
  114400    971.93374   0.33115622    6.5512564  0.018963208         0.05    5.2628706 0.0080635611     96.98777    9211.3385 
  114500    972.75002   0.33093572    6.5564983  0.018963208         0.05    5.3671091 0.0081931609    97.585141    9210.1795 
  114600    973.59909   0.33134566    6.5617953  0.018963208         0.05    5.4906796 0.0085269977    96.671505    9209.0955 
  114700    974.45382    0.3307696    6.5678041  0.018963208         0.05    5.2404744 0.0085305258    97.821039    9207.9177 
  114800    975.30077   0.33069113    6.5734809  0.018963208         0.05    4.9257789 0.0087374653    97.341792    9206.7791 
  114900     976.1684   0.33056239    6.5781639  0.018963208         0.05    5.0437048 0.0086399779    96.944415    9205.6731 
  115000    977.02654   0.33053269    6.5841395  0.018963208         0.05    5.3175247  0.008533161    94.833466    9204.7439 
  115100      977.878   0.32996583    6.5900894  0.018963208         0.05    5.0378268 0.0087119058    96.875585    9203.6436 
  115200    978.74193    0.3297403    6.5959311  0.018963208         0.05    5.1466809 0.0078851866    96.829491    9202.5472 
  115300    979.56612    0.3307884    6.6013436  0.018963208         0.05    5.3234577 0.0083899183    96.243892    9201.4991 
  115400     980.3998   0.33044778    6.6070868  0.018963208         0.05    5.4661727  0.008124769    95.684626    9200.4976 
  115500     981.2076   0.33205226    6.6124359  0.018963208         0.05    5.8772225 0.0078916223    97.007891    9199.3868 
  115600    982.00696   0.33154638    6.6169971  0.018963208         0.05    5.9358454 0.0079558679    95.877914    9198.3692 
  115700    982.80194   0.33230046    6.6221382  0.018963208         0.05    5.8205712 0.0080587665    97.844315    9197.1912 
  115800    983.63051   0.33079947    6.6271516  0.018963208         0.05    5.7692505 0.0084500743    97.129604     9196.071 
  115900    984.47176   0.33073319    6.6323742  0.018963208         0.05    5.7555504 0.0083957289    96.194095    9195.0273 
  116000    985.29043   0.33153207    6.6364619  0.018963208         0.05    5.8520842 0.0078658016    96.862721    9193.9289 
  116100    986.08184   0.33233506    6.6411091  0.018963208         0.05    5.8517066 0.0079306923    96.841407    9192.8324 
  116200    986.87177   0.33118841    6.6462077  0.018963208         0.05    5.9564235 0.0078609993    94.696265    9191.9139 
  116300    987.64389   0.33062365    6.6512315  0.018963208         0.05    6.1945187  0.007585703     96.13461    9190.8751 
  116400    988.39542    0.3308119    6.6558233  0.018963208         0.05    5.8230799 0.0072054085    97.265944    9189.7444 
  116500    989.19356    0.3303813    6.6606853  0.018963208         0.05    5.8910259 0.0081432251    96.090738    9188.7093 
  116600    990.00331   0.33031028    6.6656709  0.018963208         0.05    5.9697333 0.0080415777     95.35244    9187.7352 
  116700    990.79377   0.33113363    6.6703698  0.018963208         0.05    6.1291922 0.0079596103    96.224704    9186.6891 
  116800    991.60876   0.33016539     6.675672  0.018963208         0.05    5.8352463 0.0082637899    96.416969    9185.6272 
  116900    992.43346    0.3304591    6.6803964  0.018963208         0.05    5.6485607 0.0084578212    97.134328    9184.5076 
  117000    993.29439   0.33045278    6.6857719  0.018963208         0.05    5.7349306 0.0086686098    95.699843    9183.5046 
  117100    994.15179    0.3315146    6.6905615  0.018963208         0.05    6.0802017 0.0081889739    94.966033    9182.5624 
  117200    994.98296    0.3301215    6.6951481  0.018963208         0.05    6.0239795 0.0082761786    96.693279    9181.4783 
  117300    995.80503   0.32994313    6.6996351  0.018963208         0.05    6.1049599 0.0081617285    94.938991    9180.5381 
  117400    996.60804   0.32925001    6.7043168  0.018963208         0.05    6.2540958 0.0079474543    96.271041    9179.4881 
  117500     997.4017   0.32916053     6.709827  0.018963208         0.05     6.148426 0.0081159345    97.207041     9178.363 
  117600    998.20877   0.33027773    6.7143537  0.018963208         0.05    6.1711106 0.0080590928    96.742679    9177.2752 
  117700    999.00685   0.33129247    6.7194289  0.018963208         0.05    6.2050451 0.0079580101    95.447437    9176.2926 
  117800    999.80574    0.3298953     6.724842  0.018963208         0.05    5.9569037 0.0082748764    95.846956    9175.2772 
  117900    1000.6283   0.33049939    6.7298458  0.018963208         0.05    6.0391557 0.0081652779    95.717773    9174.2722 
  118000    1001.4341   0.33114439     6.734646  0.018963208         0.05    6.2229223 0.0079621656    94.722099    9173.3493 
  118100    1002.2374   0.33126746    6.7392146  0.018963208         0.05    6.1983252 0.0079964662    96.326492    9172.2949 
  118200     1003.027   0.33081867    6.7442318  0.018963208         0.05    6.3541028 0.0078240991    95.541732    9171.3041 
  118300    1003.8044   0.33038571    6.7491101  0.018963208         0.05    6.4262387 0.0077245274    94.901872    9170.3658 
  118400    1004.6039   0.33031206    6.7532313  0.018963208         0.05    5.7625694 0.0080232525    97.673517    9169.2046 
  118500    1005.4003   0.33002773    6.7582537  0.018963208         0.05    5.2295255 0.0079923056    96.754931     9168.116 
  118600    1006.1986   0.32944455    6.7632734  0.018963208         0.05    5.2430228 0.0079452338    96.683561    9167.0332 
  118700    1006.9758   0.32970834    6.7686168  0.018963208         0.05    5.4232612 0.0080308689     96.17409    9165.9911 
  118800    1007.8344     0.329478    6.7740294  0.018963208         0.05     5.394246 0.0086468731    97.774179    9164.8228 
  118900    1008.7172   0.32972107    6.7794906  0.018963208         0.05    5.4604777 0.0089471089    97.673517    9163.6626 
  119000     1009.605   0.32959174      6.78577  0.018963208         0.05    5.4502418  0.009033167    96.905241    9162.5627 
  119100    1010.4973   0.33103101    6.7915989  0.018963208         0.05    5.5732743 0.0087780799    95.733809    9161.5563 
  119200    1011.3884   0.33104278    6.7973041  0.018963208         0.05    5.4292349 0.0089800464     97.40778    9160.4171 
  119300    1012.2789   0.33129617    6.8027433  0.018963208         0.05    5.4979944 0.0088448718    96.060566    9159.3845 
  119400    1013.1433   0.33001338    6.8077769  0.018963208         0.05    5.5749221 0.0082162462    95.695148    9158.3812 
  119500    1014.0072    0.3304839    6.8136236  0.018963208         0.05    4.7961702 0.0091468552    96.794073    9157.2904 
  119600    1014.9069   0.33085761    6.8188604  0.018963208         0.05     4.704892 0.0089554611    96.769262    9156.2016 
  119700    1015.8085   0.33060225    6.8241656  0.018963208         0.05     5.526717 0.0088871144    96.419851    9155.1405 
  119800    1016.6702   0.33040991     6.829127  0.018963208         0.05    4.9331021 0.0085688358    98.579167    9153.9124 
  119900    1017.5236   0.33049375    6.8343309  0.018963208         0.05     4.886811  0.008563314    95.931443    9152.8903 
  120000    1018.4174   0.33129553    6.8403818  0.018963208         0.05    4.9428051 0.0088304991    96.570232    9151.8176 
  120100     1019.305   0.33107175    6.8454533  0.018963208         0.05    5.0456305  0.008874852    94.184918     9150.937 
  120200    1020.2008   0.33096813    6.8514863  0.018963208         0.05    5.1593035 0.0091713083     95.35851    9149.9605 
  120300    1021.1092   0.33032919      6.85751  0.018963208         0.05    5.2228158 0.0089882306    95.423963    9148.9787 
  120400    1021.8861    0.3308427    6.8625298  0.018963208         0.05     5.267931 0.0076127661    96.255377    9147.9305 
  120500    1022.6369   0.32969283    6.8672523  0.018963208         0.05    5.2079928 0.0072332861    95.992303    9146.9032 
  120600    1023.3836   0.33121369    6.8720584  0.018963208         0.05    5.2281687 0.0075956594     98.65058    9145.6712 
  120700    1024.1404   0.33226678    6.8770267  0.018963208         0.05    5.3005408  0.007530389    95.656519    9144.6707 
  120800    1024.8837   0.33158953    6.8821578  0.018963208         0.05    5.4031121 0.0089164648    96.030764    9143.6404 
  120900    1025.7712   0.33077972    6.8877507  0.018963208         0.05    5.1350799 0.0088049358    97.260734    9142.5144 
  121000    1026.5951     0.330373     6.893235  0.018963208         0.05    6.2186134 0.0076335346    95.916832    9141.4932 
  121100    1027.3676   0.33069229    6.8978348  0.018963208         0.05    6.1936074 0.0076765492     96.92665    9140.3931 
  121200      1028.13   0.33074109    6.9031658  0.018963208         0.05    6.2685862 0.0075873689     95.82114    9139.3794 
  121300    1028.8827   0.33051815    6.9085035  0.018963208         0.05    6.3873531 0.0074562028    95.966167    9138.3543 
  121400    1029.6248   0.33136628    6.9136184  0.018963208         0.05     6.461563  0.007378386    95.278837    9137.3836 
  121500    1030.3588   0.33154998    6.9174328  0.018963208         0.05    6.5352641 0.0073109929    96.147369    9136.3441 
  121600    1031.0875   0.33048185     6.921992  0.018963208         0.05    6.5974403 0.0072459967    96.512058    9135.2763 
  121700    1031.8052   0.33088552    6.9262373  0.018963208         0.05     6.660964 0.0070277911    95.305986    9134.3031 
  121800    1032.5961   0.33149945     6.931226  0.018963208         0.05    5.0508095 0.0080943318    98.136294    9133.1117 
  121900    1033.3973   0.33139998     6.935509  0.018963208         0.05    4.5861714 0.0080055965    96.772433    9132.0239 
  122000    1034.1979     0.329483    6.9403833  0.018963208         0.05    4.7912057 0.0080599639    96.976759    9130.9206 
  122100    1035.0119   0.32998951    6.9454819  0.018963208         0.05    4.8529144 0.0083964157    95.315256    9129.9467 
  122200    1035.8494   0.33072552    6.9504868  0.018963208         0.05    5.0831784 0.0087876405    97.915375    9128.7725 
  122300    1036.6693   0.33089709    6.9558261  0.018963208         0.05    5.1659816 0.0078792323    96.606777    9127.6978 
  122400    1037.4783   0.33216436    6.9610791  0.018963208         0.05    5.0667011 0.0081080035    98.586002    9126.4742 
  122500    1038.3199   0.33088981    6.9663678  0.018963208         0.05     4.822583 0.0098526449    98.387606    9125.2656 
  122600    1039.2978   0.33017538    6.9728937  0.018963208         0.05    4.9208261 0.0096835263    93.687351    9124.4222 
  122700    1040.2509   0.33158821    6.9787553  0.018963208         0.05    5.3208868 0.0091579616    85.733517    9124.2865 
  122800    1041.1588   0.33225463     6.984149  0.018963208         0.05    5.3860492 0.0088353747    96.639743    9123.2088 
  122900    1042.0398   0.33261724    6.9888682  0.018963208         0.05    5.4459988    0.0088038    97.603716    9122.0583 
  123000    1042.9105   0.33130836    6.9943212  0.018963208         0.05    5.4421981 0.0086866321    94.961367    9121.1112 
  123100    1043.7732   0.33113342    6.9993667  0.018963208         0.05     5.333843 0.0085661668    95.863473    9120.0933 
  123200    1044.6143   0.33045681    7.0048856  0.018963208         0.05    5.6469434 0.0083808752    95.772873    9119.0825 
  123300    1045.4591   0.32972761    7.0104683  0.018963208         0.05    5.3545052 0.0084128656    96.528272    9118.0134 
  123400    1046.3097   0.33011129    7.0168485  0.018963208         0.05    5.1414417 0.0084318796    96.317025    9116.9606 
  123500     1047.148   0.32991662    7.0228181  0.018963208         0.05    5.1741787 0.0084605228    97.263035    9115.8362 
  123600    1047.9894   0.33075416    7.0291862  0.018963208         0.05    5.2116633 0.0083898088    95.164501    9114.8726 
  123700    1048.8253   0.33067007    7.0356801  0.018963208         0.05    5.2881865 0.0082953877    94.995435    9113.9221 
  123800    1049.6509   0.33080207    7.0416701  0.018963208         0.05    5.0796993 0.0084718734    96.126039    9112.8839 
  123900    1050.4211   0.33131981    7.0465172  0.018963208         0.05    6.0588923 0.0074889173    96.921767    9111.7853 
  124000    1051.1694   0.33151573    7.0521952  0.018963208         0.05    5.7379837 0.0074761189    95.618924    9110.7861 
  124100    1051.9158   0.33091186    7.0579506  0.018963208         0.05    5.8107504  0.007429583    94.425219    9109.8801 
  124200    1052.6537   0.33216892    7.0632788  0.018963208         0.05    5.9241883 0.0072928495    96.256305    9108.8318 
  124300    1053.4116    0.3308059    7.0683695  0.018963208         0.05    6.0650515  0.007927888    96.941794    9107.7318 
  124400    1054.2152   0.33074536    7.0737188  0.018963208         0.05    5.8950215 0.0080804922    96.751003    9106.6462 
  124500    1055.0188   0.33074151    7.0790856  0.018963208         0.05    5.9753789 0.0079816793    95.320433    9105.6697 
  124600    1055.8126   0.32935142    7.0855081  0.018963208         0.05    6.0545467 0.0078862948    95.086489    9104.7113 
  124700    1056.5965   0.33074512    7.0914456  0.018963208         0.05    6.1070278 0.0077926904    96.048203    9103.6789 
  124800    1057.3704   0.33111802    7.0969009  0.018963208         0.05    6.2115211 0.0076670527    96.069873    9102.6447 
  124900    1058.1795   0.33152337    7.1025784  0.018963208         0.05    5.2776591 0.0081460635    97.055255    9101.5365 
  125000    1058.9347   0.33161208    7.1086526  0.018963208         0.05    5.5165571 0.0072857704    96.110775    9100.4993 
  125100    1059.6625   0.33150788    7.1146741  0.018963208         0.05    4.9452781 0.0072631963    95.250255    9099.5279 
  125200    1060.3848   0.33196915    7.1202827  0.018963208         0.05    5.0332246 0.0072115436    96.855764    9098.4347 
  125300    1061.1417   0.33172786    7.1248444  0.018963208         0.05    4.7405892 0.0082615284    96.393902    9097.3761 
  125400    1061.9953   0.33087157     7.131592  0.018963208         0.05    5.0784195 0.0088475594     97.14011    9096.2621 
  125500    1062.8888   0.33179662    7.1373961  0.018963208         0.05    4.9624553 0.0091524396    96.799412    9095.1733 
  125600    1063.6933   0.33178014    7.1432635  0.018963208         0.05    5.0435127 0.0077343604    96.696846    9094.0923 
  125700    1064.4666    0.3309494    7.1482586  0.018963208         0.05    5.1208388  0.007790131    96.758859    9093.0068 
  125800    1065.2418   0.33204202     7.153697  0.018963208         0.05    5.6577056 0.0081095099    95.437056    9092.0208 
  125900    1066.0373   0.33258938    7.1588497  0.018963208         0.05     6.063573 0.0078759756    96.607067    9090.9466 
  126000    1066.8109   0.33118364    7.1637384  0.018963208         0.05    5.5676941 0.0087940058    94.541024    9090.0294 
  126100    1067.6471   0.33216565    7.1698785  0.018963208         0.05    5.7555763 0.0083109472    96.372817    9088.9727 
  126200    1068.4696   0.33143865     7.176229  0.018963208         0.05    5.6990203 0.0081729712    98.494996    9087.7611 
  126300    1069.2476   0.33130171    7.1815044  0.018963208         0.05     5.779066 0.0074734138     94.66083    9086.8344 
  126400    1070.0108   0.33192984    7.1864361  0.018963208         0.05    5.8693814  0.007706564    97.374695    9085.7039 
  126500    1070.7759   0.33282888    7.1913271  0.018963208         0.05    5.9138089 0.0076137965    94.800028    9084.7663 
  126600    1071.5895   0.33227278    7.1966309  0.018963208         0.05    6.0705099  0.008183664    96.876972    9083.6724 
  126700    1072.3959   0.33170422    7.2019467  0.018963208         0.05    6.1473074 0.0080416593    97.806874    9082.5109 
  126800    1073.1939   0.33174597    7.2071734  0.018963208         0.05    6.2312414 0.0078897969    93.950973    9081.6387 
  126900    1073.9761   0.33141172    7.2123214  0.018963208         0.05    5.5011703 0.0076498235    95.955102    9080.6132 
  127000    1074.7395    0.3319253    7.2175521  0.018963208         0.05    5.6453222 0.0076172986    96.351364    9079.5582 
  127100    1075.4978   0.33140483    7.2230709  0.018963208         0.05    5.7211557 0.0075422279    95.896416    9078.5371 
  127200    1076.2456   0.33114842    7.2278856  0.018963208         0.05    6.1114702 0.0073683088    97.069653    9077.4294 
  127300     1076.973   0.33042052    7.2325631  0.018963208         0.05    6.5789906 0.0069211129    97.012603     9076.326 
  127400     1077.678   0.33082336    7.2365887  0.018963208         0.05    6.1523149 0.0072342126    100.27745    9074.9928 
  127500    1078.4038   0.33048658    7.2407683  0.018963208         0.05    6.1276244 0.0072429948    98.338864    9073.7948 
  127600     1079.125   0.32968629    7.2453054  0.018963208         0.05    6.2029025 0.0071768992    95.814989    9072.7801 
  127700    1079.8394   0.33050731    7.2504868  0.018963208         0.05    6.2860793 0.0071103377    95.650127    9071.7777 
  127800    1080.5482    0.3313091    7.2550037  0.018963208         0.05    6.3510221 0.0070447594    95.788096    9070.7649 
  127900     1081.247   0.33106879     7.259758  0.018963208         0.05    5.5806406 0.0082093027    95.426851     9069.779 
  128000    1082.0263   0.33109736    7.2643859  0.018963208         0.05    5.3724569 0.0078145112    96.353976    9068.7244 
  128100    1082.8039   0.33175253    7.2699154  0.018963208         0.05    5.4461295 0.0076191966    93.994513     9067.847 
  128200    1083.5679   0.33137144    7.2754431  0.018963208         0.05    5.4987242  0.007426878    96.532271    9066.7792 
  128300      1084.33    0.3315855    7.2803353  0.018963208         0.05    5.0681778 0.0076263349    96.100799    9065.7431 
  128400    1085.0873   0.33119024    7.2849599  0.018963208         0.05    5.4497296 0.0073352718    94.803092    9064.8036 
  128500    1085.8286   0.33191918    7.2890954  0.018963208         0.05    5.5082149 0.0074159685    95.941296    9063.7791 
  128600     1086.609   0.33173995    7.2939895  0.018963208         0.05    5.0225576 0.0083067608    98.149958    9062.5956 
  128700    1087.4373   0.33210062    7.2986123  0.018963208         0.05     4.991443 0.0081852485     96.29321    9061.5454 
  128800    1088.2606   0.33258911    7.3030026  0.018963208         0.05    5.1178457 0.0082639976    96.859321    9060.4541 
  128900    1089.0933   0.33077157    7.3085463  0.018963208         0.05    4.8445394 0.0082120831    96.743438    9059.3713 
  129000    1089.9119   0.33111891    7.3135426  0.018963208         0.05     4.862334 0.0081882487    96.820416     9058.283 
  129100    1090.7596   0.33079504    7.3189835  0.018963208         0.05    4.8599326 0.0090265502    95.857689    9057.2648 
  129200    1091.6594     0.332105    7.3239352  0.018963208         0.05    5.0303753 0.0089427604    94.953864    9056.3135 
  129300     1092.524   0.33207066    7.3294922  0.018963208         0.05    5.0549803 0.0087473466    97.786602    9055.1566 
  129400    1093.3766   0.33128674    7.3347576  0.018963208         0.05     5.827753 0.0080693685    97.237014    9054.0387 
  129500    1094.2303   0.33133523    7.3400499  0.018963208         0.05    5.3900472 0.0090127564    97.176434    9052.9253 
  129600    1095.0625   0.33041056    7.3452946  0.018963208         0.05    5.3180137 0.0080045704    98.535466    9051.7168 
  129700    1095.8605   0.33035853    7.3501325  0.018963208         0.05    5.6051354 0.0077544741     96.92609    9050.6216 
  129800    1096.7235   0.33209134    7.3544922  0.018963208         0.05    5.6611158 0.0086050719    97.435115    9049.4903 
  129900     1097.586   0.33215735    7.3585176  0.018963208         0.05    5.6103222 0.0086159915     96.55167    9048.4221 
  130000    1098.4421   0.33299742     7.364011  0.018963208         0.05    5.6959325 0.0084947778    95.868447    9047.4034 
  130100    1099.2909   0.33262343    7.3700977  0.018963208         0.05    5.5773646 0.0085688632    97.490397    9046.2686 
  130200    1100.1526   0.33156442    7.3758841  0.018963208         0.05    4.8598459 0.0089641009    97.109073    9045.1609 
  130300    1101.0475   0.33274525    7.3809041  0.018963208         0.05     4.901278 0.0089591353    96.461406    9044.0994 
  130400    1101.9372   0.33269446     7.386796  0.018963208         0.05    5.0524817 0.0087283825    95.565569    9043.1028 
  130500    1102.8043   0.33186843    7.3925415  0.018963208         0.05     5.021619 0.0087577973    96.027818    9042.0725 
  130600    1103.6862   0.33209762    7.3982267  0.018963208         0.05    5.3379248 0.0083489309     95.86183    9041.0542 
  130700    1104.5815   0.33326264    7.4033528  0.018963208         0.05    4.7881847 0.0090696511    96.580283    9039.9843 
  130800     1105.481   0.33133386    7.4091129  0.018963208         0.05    4.9164325 0.0091058214    97.239561    9038.8678 
  130900    1106.3346    0.3318351    7.4140965  0.018963208         0.05    4.8707594 0.0087028423    97.364908    9037.7426 
  131000    1107.2118   0.33065056    7.4193661  0.018963208         0.05    5.2374955  0.008825701    97.795015    9036.5877 
  131100    1108.0927    0.3294074    7.4252878  0.018963208         0.05    5.2961857 0.0087879369    95.176745    9035.6193 
  131200    1108.9689   0.32993608    7.4315577  0.018963208         0.05    5.3823902 0.0087176979    95.263667    9034.6445 
  131300    1109.8357   0.33064429    7.4373138  0.018963208         0.05    5.3788345 0.0086399007    95.421228    9033.6581 
  131400    1110.6978   0.33053806    7.4430464  0.018963208         0.05    5.4587919 0.0085933891    97.325574     9032.536 
  131500    1111.5442   0.32925047     7.448481  0.018963208         0.05    5.5529699 0.0083476218     95.95328    9031.5112 
  131600    1112.3527   0.33168347    7.4535721  0.018963208         0.05     5.632302 0.0082558694    96.416659    9030.4533 
  131700    1113.1766    0.3303758    7.4593928  0.018963208         0.05    5.1403999 0.0082547503    97.445188    9029.3232 
  131800    1113.9995   0.33151812    7.4650017  0.018963208         0.05    5.2106668 0.0081822121    95.147123    9028.3565 
  131900     1114.812   0.33112694    7.4699821  0.018963208         0.05    5.2919116 0.0079919015    95.739119     9027.347 
  132000    1115.6069   0.33085837    7.4748482  0.018963208         0.05    5.5427861 0.0082347187     95.13111    9026.3813 
  132100    1116.4323   0.33122143    7.4796155  0.018963208         0.05    5.8082996 0.0080216535    96.125004    9025.3441 
  132200    1117.2359   0.33073771    7.4848255  0.018963208         0.05    5.9025143 0.0082623978    97.310806    9024.2236 
  132300    1118.0567   0.33119476    7.4903997  0.018963208         0.05    5.9916566 0.0081520529    95.545845    9023.2278 
  132400    1118.8672    0.3310442     7.495768  0.018963208         0.05    6.0715792 0.0080475727    95.469315    9022.2374 
  132500    1119.6718   0.33168611    7.5005063  0.018963208         0.05    5.8056523 0.0082243817    96.479002    9021.1751 
  132600    1120.4997   0.33054538    7.5060875  0.018963208         0.05    5.7867783 0.0082457896    97.721625    9020.0267 
  132700    1121.3069    0.3310857    7.5110021  0.018963208         0.05    5.3867806 0.0084800855     96.07938    9018.9928 
  132800    1122.1462   0.33167588    7.5162841  0.018963208         0.05    5.0955864 0.0080875331    97.641752    9017.8501 
  132900    1122.9499   0.33180079    7.5213488  0.018963208         0.05    5.5937227 0.0079357632    96.852208    9016.7621 
  133000    1123.7352   0.33080011    7.5266911  0.018963208         0.05    5.1273426 0.0076812009    96.341892    9015.7098 
  133100    1124.4953   0.33126779    7.5317107  0.018963208         0.05    6.1012136 0.0074312873    95.831889    9014.6935 
  133200    1125.2523   0.33141331    7.5364107  0.018963208         0.05    5.4177377 0.0087329739    96.252241    9013.6475 
  133300    1126.1327   0.33072762    7.5416562  0.018963208         0.05    5.3547422  0.008837453    95.962193    9012.6219 
  133400    1127.0107   0.33101794    7.5469016  0.018963208         0.05    5.4434445  0.008848149    94.943225     9011.669 
  133500    1127.8909   0.33175931    7.5523282  0.018963208         0.05    5.1120576 0.0090025205    96.664599    9010.5942 
  133600    1128.7621   0.33077855    7.5580119  0.018963208         0.05    4.9834707 0.0084135851    95.713383    9009.5861 
  133700    1129.6252   0.33239115    7.5635993  0.018963208         0.05    4.6742306 0.0088643573    98.010008    9008.4193 
  133800    1130.5145   0.33271528    7.5690606  0.018963208         0.05    4.7293836  0.008854544    95.914332     9007.397 
  133900     1131.415   0.33131291    7.5747621  0.018963208         0.05    5.2380154 0.0090044562    96.857934    9006.3091 
  134000    1132.3112   0.33116221    7.5803231  0.018963208         0.05    5.4143761 0.0091872301    95.372886    9005.3251 
  134100    1133.2285   0.33242945    7.5858657  0.018963208         0.05    4.6614725 0.0091867246    96.309704    9004.2752 
  134200    1134.1412   0.33228974    7.5912285  0.018963208         0.05    4.7750973 0.0090906485     96.74163    9003.1953 
  134300    1135.0433   0.33189109    7.5970431  0.018963208         0.05    4.9048971 0.0081454249    96.526872    9002.1304 
  134400    1135.9308   0.33129505    7.6035134  0.018963208         0.05    4.9553942 0.0093153286    97.092371    9001.0266 
  134500    1136.8376   0.33264176    7.6096547  0.018963208         0.05    5.0757881 0.0089512836    95.525216    9000.0317 
  134600    1137.7279   0.33157766    7.6147914  0.018963208         0.05    5.2066687 0.0088419282    95.841064    8999.0145 
  134700    1138.6146   0.33203302    7.6198761  0.018963208         0.05    5.3189653 0.0090719951     96.37078    8997.9605 
  134800    1139.5117   0.33189635    7.6260308  0.018963208         0.05    5.2953006 0.0089846399     96.12474    8996.9235 
  134900    1140.4105   0.33142142    7.6322127  0.018963208         0.05    5.4444319 0.0090801982    96.010101    8995.8945 
  135000    1141.2977   0.33169761    7.6383932  0.018963208         0.05    5.5478784  0.008889822    96.035843    8994.8636 
  135100    1142.2136   0.33116284    7.6443308  0.018963208         0.05    5.2387483 0.0090294219    95.419838    8993.8758 
  135200    1143.1279   0.33148945    7.6505163  0.018963208         0.05    5.3412474 0.0090298379    95.598176    8992.8754 
  135300    1144.0432   0.33072657    7.6563094  0.018963208         0.05    5.1995326 0.0091544808    97.451165    8991.7478 
  135400    1144.9484   0.33051012     7.662412  0.018963208         0.05    5.2505697 0.0088090189    95.185255    8990.7764 
  135500    1145.8509    0.3310169    7.6676496  0.018963208         0.05    5.4311505 0.0088479578    97.416513    8989.6513 
  135600    1146.7512   0.33096241     7.673704  0.018963208         0.05    5.5113463 0.0090435566    97.158786    8988.5437 
  135700    1147.6363   0.33177303    7.6794324  0.018963208         0.05    5.6383897 0.0086405375    96.822003     8987.459 
  135800    1148.5161   0.33166315    7.6858876  0.018963208         0.05    5.0440975 0.0090372484    96.835058    8986.3735 
  135900    1149.4026   0.33163102    7.6915243  0.018963208         0.05    5.0219575 0.0085685533    96.750534    8985.2938 
  136000    1150.2811   0.33016568    7.6972561  0.018963208         0.05    4.9151733 0.0079573619    96.363982    8984.2406 
  136100    1151.0945   0.33030328     7.702338  0.018963208         0.05    5.0002572 0.0087258601    95.768565    8983.2283 
  136200    1151.9615    0.3315249    7.7079886  0.018963208         0.05    5.1537695 0.0086209627    96.216383    8982.1851 
  136300    1152.8099   0.33218136    7.7135237  0.018963208         0.05    5.2282022 0.0083554935    96.137496    8981.1474 
  136400    1153.6423   0.33086047    7.7186099  0.018963208         0.05    5.2755603 0.0085808443    97.520068    8980.0163 
  136500    1154.4439   0.33123446    7.7238717  0.018963208         0.05    5.4571068 0.0087649457    96.987366    8978.9209 
  136600    1155.3398   0.33139037    7.7286675  0.018963208         0.05    5.6403308 0.0087379649    95.860735    8977.9023 
  136700     1156.225   0.33210024    7.7337614  0.018963208         0.05     5.143001 0.0087863288    96.876502    8976.8145 
  136800     1157.091   0.33089464    7.7390317  0.018963208         0.05    5.1561918 0.0087167766    96.663373    8975.7412 
  136900    1157.9614   0.33113743    7.7443356  0.018963208         0.05    5.4014584 0.0089984182    97.193346    8974.6324 
  137000     1158.828   0.33138299    7.7486823  0.018963208         0.05    5.4795958  0.008602309    95.235483    8973.6569 
  137100    1159.6839   0.33270019    7.7534952  0.018963208         0.05    5.5651813 0.0083963476    95.393991    8972.6704 
  137200    1160.5496   0.33112325     7.759218  0.018963208         0.05     5.651755 0.0086229736    94.840671    8971.7222 
  137300    1161.4041   0.33087212     7.764679  0.018963208         0.05     5.817638 0.0083284656    95.020529    8970.7613 
  137400    1162.2328   0.33034924    7.7702395  0.018963208         0.05    5.6328428 0.0083131589    98.066426    8969.5951 
  137500    1163.0524   0.33184441    7.7760761  0.018963208         0.05    5.5453744 0.0082898865    95.339977     8968.612 
  137600    1163.8956   0.33184043    7.7815289  0.018963208         0.05    5.5777145 0.0084308493    97.042523    8967.5135 
  137700    1164.7346   0.33150995    7.7873114  0.018963208         0.05    5.7411172 0.0083398514    95.321625    8966.5316 
  137800    1165.5637   0.33112454    7.7925035  0.018963208         0.05    5.8240289 0.0082131126     94.42524    8965.6119 
  137900    1166.3995   0.33214462    7.7973454  0.018963208         0.05    5.9066647 0.0083662184    95.398179    8964.6244 
  138000    1167.2289   0.33169302     7.802763  0.018963208         0.05    6.0065454 0.0082112443    95.057569    8963.6604 
  138100    1168.0367   0.33104131    7.8081063  0.018963208         0.05    6.0778647 0.0081111045     96.12529    8962.6232 
  138200    1168.8435   0.33054902     7.813358  0.018963208         0.05    6.1560029  0.008009825    94.930783    8961.6677 
  138300    1169.6278   0.33072847    7.8181723  0.018963208         0.05    5.7773989 0.0077055409    96.438429    8960.6095 
  138400    1170.4429    0.3313371    7.8232291  0.018963208         0.05     4.896504 0.0092814759    97.245896    8959.4977 
  138500    1171.3714    0.3327064    7.8292148  0.018963208         0.05    4.9127538 0.0094839961    96.838523    8958.4129 
  138600     1172.302   0.33243303    7.8348654  0.018963208         0.05    5.0058174 0.0088918892    96.047631    8957.3811 
  138700    1173.1866   0.33178428     7.840862  0.018963208         0.05    4.8938029 0.0089595451    96.098311    8956.3458 
  138800    1174.0928   0.33244276    7.8469373  0.018963208         0.05    4.6777715 0.0090179974    96.681132    8955.2716 
  138900    1174.9694   0.33160026    7.8528447  0.018963208         0.05    5.1610558 0.0087328223    96.344503    8954.2198 
  139000    1175.8402   0.33128835       7.8585  0.018963208         0.05    5.1587313 0.0086642935    93.545119    8953.3605 
  139100    1176.7242   0.33293551    7.8647668  0.018963208         0.05    5.2471405 0.0091027687    95.942766    8952.3355 
  139200     1177.624   0.33234317    7.8713213  0.018963208         0.05    5.3581665 0.0087017802    95.575804    8951.3353 
  139300    1178.5028   0.33264375    7.8786997  0.018963208         0.05    5.4479869 0.0087477032    97.348705    8950.2172 
  139400    1179.3748   0.33303396    7.8851329  0.018963208         0.05    5.4277855 0.0087293847    96.907771    8949.1282 
  139500    1180.2201    0.3320589    7.8910688  0.018963208         0.05    5.1806259 0.0083335831    96.824261    8948.0447 
  139600    1181.0414   0.33215252    7.8968714  0.018963208         0.05    5.1984408  0.008222011    97.063813    8946.9455 
  139700    1181.8505   0.33217571    7.9026961  0.018963208         0.05    5.2781171 0.0081488121    97.190035    8945.8383 
  139800    1182.6663   0.33137213    7.9093737  0.018963208         0.05    4.9736347 0.0081560711     98.01452    8944.6779 
  139900    1183.4775   0.33127033    7.9151895  0.018963208         0.05     5.080328 0.0080434471    97.511317      8943.55 
  140000    1184.2893   0.33264441    7.9206234  0.018963208         0.05    5.4128592 0.0083961407    96.325298    8942.4999 
  140100    1185.1316   0.33338914    7.9263082  0.018963208         0.05    5.1915756 0.0084074871    96.365288    8941.4471 
  140200    1185.9756   0.33258215    7.9323309  0.018963208         0.05    5.2444951 0.0089108044    95.608963    8940.4447 
  140300    1186.8608   0.33146718    7.9391218  0.018963208         0.05    6.3512711 0.0077431393     94.71196     8939.503 
  140400     1187.653   0.33208784     7.944617  0.018963208         0.05    6.1714428 0.0079008296    98.115197    8938.3368 
  140500    1188.5163   0.33136076    7.9505624  0.018963208         0.05    4.9820797 0.0088918501    96.701795     8937.262 
  140600    1189.3958   0.33063503     7.956958  0.018963208         0.05    5.0848457 0.0085057036    95.996565    8936.2337 
  140700    1190.2712   0.33136305    7.9643076  0.018963208         0.05    5.1662801 0.0085685858    96.812527    8935.1517 
  140800     1191.121    0.3321549    7.9702231  0.018963208         0.05    5.2442403 0.0084439893    97.019649    8934.0564 
  140900    1191.9577    0.3321413    7.9763373  0.018963208         0.05    5.5136152  0.008616437    98.084819    8932.8929 
  141000    1192.8154   0.33207884    7.9813737  0.018963208         0.05    5.6564627 0.0082663301    95.704669    8931.8841 
  141100    1193.6673   0.33151958    7.9861446  0.018963208         0.05    5.1404507 0.0084907078    97.961228    8930.7287 
  141200     1194.519   0.32997192    7.9913651  0.018963208         0.05    5.2256247 0.0085503484    98.355883    8929.5486 
  141300    1195.3767   0.33122691    7.9965245  0.018963208         0.05    4.8736263 0.0086103053    97.993682    8928.3916 
  141400    1196.2512   0.33114973    8.0022632  0.018963208         0.05    5.0830397  0.008902384    97.137545    8927.2893 
  141500    1197.1816   0.33029811    8.0085832  0.018963208         0.05    5.3194088 0.0093033445    98.027211    8926.1305 
  141600    1198.1121   0.33162462    8.0152781  0.018963208         0.05    5.2545868 0.0088516078    96.703289    8925.0566 
  141700    1199.0239   0.33159344    8.0211486  0.018963208         0.05    5.1895989 0.0092729213    97.562215    8923.9275 
  141800    1199.9455   0.33210159     8.027206  0.018963208         0.05    5.2609989 0.0093272026    98.412885     8922.745 
  141900    1200.8643   0.33127621    8.0337778  0.018963208         0.05    5.3612734 0.0090478337     96.10811    8921.7101 
  142000    1201.7596   0.33134028    8.0398668  0.018963208         0.05     5.453919 0.0088743597    93.920089    8920.8216 
  142100    1202.6409   0.33173415    8.0463162  0.018963208         0.05    5.5493863 0.0087630119    96.634399    8919.7523 
  142200    1203.4619   0.33106909    8.0525221  0.018963208         0.05     6.132072 0.0079316697    95.231483    8918.7751 
  142300    1204.2509   0.32972605    8.0584894  0.018963208         0.05    6.2058041 0.0078388455    95.446525    8917.7834 
  142400    1205.0305   0.33173076    8.0642358  0.018963208         0.05    6.3021732 0.0077225584    95.572885    8916.7834 
  142500    1205.8069    0.3303754    8.0700268  0.018963208         0.05    5.7263063 0.0078401056    96.471923    8915.7246 
  142600    1206.5855   0.33206981    8.0756465  0.018963208         0.05    5.8540837 0.0076228843    96.616213    8914.6565 
  142700     1207.411   0.33125846    8.0825279  0.018963208         0.05    5.2669112 0.0090963758    96.736967    8913.5808 
  142800    1208.3227     0.331521    8.0882282  0.018963208         0.05    5.1454571 0.0090786213    97.355439    8912.4656 
  142900    1209.2308    0.3302494    8.0948531  0.018963208         0.05    5.2362733 0.0090657125    96.723203    8911.3909 
  143000    1210.1302   0.32984608    8.1010435  0.018963208         0.05    5.4169271 0.0089273801    94.778906    8910.4433 
  143100    1211.0146   0.33066763    8.1071211  0.018963208         0.05     5.548832  0.008588475    95.373536    8909.4562 
  143200       1211.9   0.33086532    8.1124747  0.018963208         0.05     5.805563 0.0070933561    96.627587    8908.3875 
  143300    1212.6913    0.3311482    8.1180915  0.018963208         0.05    5.3878105 0.0080637516    98.573444    8907.1968 
  143400    1213.4897    0.3314533    8.1235095  0.018963208         0.05    5.5634631 0.0077007412    96.823814    8906.1159 
  143500    1214.2684   0.33174118    8.1281694  0.018963208         0.05    5.5672066 0.0079565525    97.393734    8904.9989 
  143600    1215.0639   0.33132036    8.1334382  0.018963208         0.05    5.6467602 0.0079526381    96.771785    8903.9214 
  143700    1215.8772   0.33033469    8.1397297  0.018963208         0.05    5.7946183 0.0085608774    96.767677    8902.8442 
  143800    1216.7297   0.33108626    8.1448385  0.018963208         0.05     5.790205 0.0085416354    96.890198    8901.7593 
  143900    1217.5773   0.33176746    8.1498264  0.018963208         0.05    6.0390531 0.0082104733    95.190245    8900.7842 
  144000    1218.4294   0.33019561    8.1553219  0.018963208         0.05    5.0833466 0.0083314828    96.556693    8899.7205 
  144100    1219.2324   0.33074145    8.1606242  0.018963208         0.05    5.5693965 0.0078639801    96.187874    8898.6805 
  144200    1220.0365   0.33184349    8.1654621  0.018963208         0.05    5.2036286 0.0080970292    96.944774    8897.5923 
  144300    1220.8814   0.33214555    8.1710036  0.018963208         0.05    5.2738833  0.008301689    96.731077    8896.5177 
  144400     1221.754    0.3314642    8.1769714  0.018963208         0.05    5.4442091 0.0085179526    95.949131    8895.4931 
  144500    1222.6156   0.33163715    8.1828064  0.018963208         0.05    5.3976875 0.0087002853    96.967164    8894.4037 
  144600    1223.4804   0.33061153     8.187913  0.018963208         0.05    5.4677163 0.0085809075      95.6879    8893.3959 
  144700    1224.3331   0.33053144    8.1933778  0.018963208         0.05    5.5530103 0.0084560082    95.468771    8892.4023 
  144800    1225.1714   0.33100424    8.1983829  0.018963208         0.05    5.5744915 0.0082866654    94.228337      8891.49 
  144900    1226.0178   0.33159362    8.2036738  0.018963208         0.05    5.2529549 0.0088809431    97.305975    8890.3794 
  145000    1226.9025   0.33043562     8.209043  0.018963208         0.05    5.5916928 0.0087451411    96.434149    8889.3237 
  145100    1227.7778   0.33022825    8.2148241  0.018963208         0.05    5.5156639 0.0087177998     95.75326    8888.3115 
  145200    1228.6336   0.33107857    8.2206928  0.018963208         0.05    5.7397561 0.0084862368     96.77404    8887.2344 
  145300     1229.477   0.33037417    8.2260818  0.018963208         0.05    5.6531275 0.0083831988    95.799472    8886.2192 
  145400    1230.2893   0.33195429    8.2317752  0.018963208         0.05    5.9292183 0.0080494978    97.617073    8885.0897 
  145500    1231.1109   0.33074973    8.2379124  0.018963208         0.05     5.804825 0.0081854998    96.602016    8884.0236 
  145600    1231.9265    0.3310009    8.2430953  0.018963208         0.05    5.9033929  0.008107025    95.706874    8883.0143 
  145700    1232.7326   0.33166004    8.2477212  0.018963208         0.05    5.9840091 0.0080067914    95.491289    8882.0188 
  145800    1233.5286   0.33231649    8.2526647  0.018963208         0.05     6.095685 0.0078655451     94.69635    8881.0748 
  145900    1234.2954   0.33096194     8.257453  0.018963208         0.05    6.4489019 0.0076626147    96.000059    8880.0466 
  146000    1235.0596   0.33053033    8.2620128  0.018963208         0.05    4.8011659 0.0085456172    95.330247    8879.0613 
  146100    1235.9049   0.33007605    8.2671945  0.018963208         0.05    4.8656025 0.0085632932    96.139524    8878.0242 
  146200      1236.76    0.3299683    8.2722973  0.018963208         0.05    5.0886493 0.0085519715    96.381631    8876.9719 
  146300    1237.6092   0.33056864    8.2766337  0.018963208         0.05    5.1778953 0.0084539514    96.501355    8875.9121 
  146400    1238.4624   0.32975477    8.2820335  0.018963208         0.05    5.2656516 0.0084492173    97.430362    8874.7947 
  146500    1239.3044   0.33053913    8.2874461  0.018963208         0.05    4.6725277 0.0083726353    95.625246    8873.7903 
  146600    1240.1385   0.33053056    8.2924972  0.018963208         0.05    4.6746991 0.0082238163    96.047081    8872.7591 
  146700    1240.9546   0.33080656    8.2973691  0.018963208         0.05    5.2648754 0.0080987707    95.738223    8871.7474 
  146800    1241.7622   0.33120594    8.3027385  0.018963208         0.05    4.5981142 0.0080472312    96.429028    8870.6923 
  146900     1242.564     0.330644    8.3081277  0.018963208         0.05    4.7074101  0.007979796     95.08595    8869.7221 
  147000    1243.3603   0.33095039    8.3128166  0.018963208         0.05    4.7770747 0.0079358287    94.848048    8868.7672 
  147100    1244.1486   0.33120083    8.3173044  0.018963208         0.05    4.8559126 0.0077762848    94.799235    8867.8153 
  147200    1245.0147    0.3304847    8.3226949  0.018963208         0.05    4.9831269 0.0087457371    97.483645     8866.695 
  147300    1245.8996   0.33027855    8.3278706  0.018963208         0.05     5.151858 0.0094761745    97.252999    8865.5889 
  147400    1246.8103   0.33180034    8.3330486  0.018963208         0.05    5.2429332 0.0088490356    96.936036    8864.5023 
  147500     1247.675   0.33101693     8.338067  0.018963208         0.05     5.343963 0.0086150825    96.675249    8863.4319 
  147600     1248.535   0.33092943    8.3434963  0.018963208         0.05    5.4281079 0.0085077128    95.363236    8862.4438 
  147700    1249.3692   0.33098322    8.3483355  0.018963208         0.05    5.5136641 0.0082826038    96.839641    8861.3633 
  147800    1250.1925   0.33096056    8.3537832  0.018963208         0.05    5.5401845 0.0081719112    95.293557    8860.3794 
  147900    1251.0077   0.32978084    8.3585765  0.018963208         0.05    6.1201327 0.0081108823    96.789494    8859.3021 
  148000    1251.8229   0.33088147    8.3630078  0.018963208         0.05    6.0426785 0.0082211855    94.774516    8858.3512 
  148100    1252.6404   0.33068412    8.3678549  0.018963208         0.05    6.1216507 0.0081162236    94.413358    8857.4234 
  148200    1253.4469   0.33030303    8.3727756  0.018963208         0.05    6.2109511 0.0080036605     95.41986    8856.4313 
  148300    1254.2403    0.3305128    8.3778789  0.018963208         0.05    6.3418102 0.0078519083     95.38744    8855.4411 
  148400    1255.0242   0.33116211    8.3824262  0.018963208         0.05     6.393005  0.007789376    95.246707    8854.4597 
  148500    1255.7987   0.32981337    8.3868871  0.018963208         0.05    6.5043756 0.0076559082    95.445808    8853.4657 
  148600    1256.5613   0.33066989    8.3913014  0.018963208         0.05    6.5646635  0.007589367    95.313523    8852.4799 
  148700    1257.3162   0.33052435    8.3961045  0.018963208         0.05    6.6445739 0.0074956337    95.344615    8851.4921 
  148800    1258.0576   0.33030273     8.400918  0.018963208         0.05    6.7705759 0.0073229826    96.076056    8850.4585 
  148900    1258.7815   0.33176144    8.4048433  0.018963208         0.05    6.2854907 0.0074346639    97.139907    8849.3597 
  149000    1259.5271   0.33045725    8.4096734  0.018963208         0.05    6.4257734 0.0074696572    94.617054    8848.4178 
  149100    1260.2708   0.33069012     8.413948  0.018963208         0.05    6.4983577 0.0073931243    95.077824    8847.4466 
  149200    1261.0068   0.33127949    8.4175591  0.018963208         0.05    6.5732795 0.0073153669    95.696524    8846.4364 
  149300    1261.7354   0.33124528    8.4216942  0.018963208         0.05    6.6486589 0.0072496857    95.734814    8845.4238 
  149400    1262.4569   0.33188771    8.4256982  0.018963208         0.05    6.7243214 0.0071761976    95.809407    8844.4066 
  149500    1263.1711   0.33111075    8.4302257  0.018963208         0.05    6.8364064 0.0070565771    95.133268    8843.4315 
  149600    1263.8695   0.32959446    8.4345003  0.018963208         0.05    6.8814756 0.0070008721     96.72376    8842.3581 
  149700    1264.5679    0.3312057    8.4383697  0.018963208         0.05    6.9229541 0.0069476655    95.073212    8841.3866 
  149800    1265.2591   0.33135768    8.4426284  0.018963208         0.05    6.3242543 0.0073890125    96.627787     8840.319 
  149900    1266.1509   0.33029678     8.447989  0.018963208         0.05    4.8280198 0.0090300384    96.877912    8839.2363 
  150000    1267.0493   0.33155625    8.4540213  0.018963208         0.05    4.9906944 0.0091894788    95.920869    8838.2121 
  150100    1267.9964   0.33040796    8.4605608  0.018963208         0.05    5.0854051 0.0095752732    98.040959    8837.0601 
  150200    1268.9508   0.33130491    8.4665203  0.018963208         0.05    5.0689401 0.0095293048    95.992215    8836.0315 
  150300    1269.8815   0.33095177    8.4717156  0.018963208         0.05    5.2691553 0.0090609732    98.618547     8834.846 
  150400    1270.8135   0.33093578    8.4768134  0.018963208         0.05    5.6104782 0.0088697383    97.772173    8833.7104 
  150500    1271.7522    0.3323713    8.4825201  0.018963208         0.05    5.2731954 0.0094134338    97.701275    8832.5791 
  150600    1272.6798   0.33072894    8.4881752  0.018963208         0.05    5.3878643 0.0091756862    92.840613    8831.7501 
  150700    1273.5807   0.33129902    8.4936356  0.018963208         0.05    5.4467058 0.0090667248    93.577844    8830.8731 
  150800    1274.4769   0.32989912    8.4988861  0.018963208         0.05    5.3704086 0.0091276579    93.204457    8830.0198 
  150900    1275.3838   0.33063581    8.5042704  0.018963208         0.05    5.4564722 0.0089811527    92.767307    8829.1948 
  151000    1276.2734   0.33003752    8.5094555  0.018963208         0.05     5.606544 0.0088031244    92.990212    8828.3548 
  151100    1277.1207    0.3303323    8.5149596  0.018963208         0.05    5.6720699 0.0086170243    92.429893    8827.5512 
  151200    1277.9848   0.33054329    8.5206323  0.018963208         0.05     5.705091 0.0085959825    93.877248    8826.6536 
  151300    1278.8526   0.32995739    8.5264102  0.018963208         0.05    5.6984014 0.0087265339    93.521132    8825.7785 
  151400    1279.7045   0.33101281    8.5320781  0.018963208         0.05    5.8850129 0.0084889489    93.640227    8824.8955 
  151500     1280.548   0.33157846    8.5368969  0.018963208         0.05    5.9683884 0.0083708169    92.536912    8824.0836 
  151600    1281.3799   0.33146793    8.5417728  0.018963208         0.05    6.0511297 0.0082565175     92.39821    8823.2804 
  151700    1282.2003   0.33051007    8.5467815  0.018963208         0.05    6.1397817 0.0081383266    91.889288    8822.5104 
  151800    1283.0101   0.33076918    8.5512967  0.018963208         0.05    6.2156675 0.0080385309    92.262926    8821.7153 
  151900    1283.8069   0.33058913    8.5569473  0.018963208         0.05    5.5166532  0.008638434    93.097046    8820.8656 
  152000    1284.6562   0.33092998     8.562045  0.018963208         0.05     5.996183 0.0081128542    91.947101    8820.0906 
  152100    1285.4188   0.33134726    8.5671689  0.018963208         0.05    6.7229322 0.0073076173    93.406771    8819.2204 
  152200    1286.1527   0.33110013    8.5724224  0.018963208         0.05     5.691872 0.0081613742    93.138413    8818.3671 
  152300    1286.9621   0.33194255     8.576864  0.018963208         0.05    5.8904299 0.0081145175    93.675048    8817.4793 
  152400    1287.7686   0.33154603    8.5824312  0.018963208         0.05    5.9823223 0.0080051027    92.629059    8816.6583 
  152500    1288.5635    0.3312117    8.5866586  0.018963208         0.05    5.9562668 0.0079296595    93.738796     8815.766 
  152600    1289.3517   0.33148905    8.5920724  0.018963208         0.05    6.0636908 0.0078347259    92.187996    8814.9731 
  152700    1290.1319   0.33173724    8.5966936  0.018963208         0.05    6.1412939 0.0077535983    93.390486    8814.1023 
  152800    1290.9024   0.33065559    8.6016979  0.018963208         0.05    6.1630483 0.0076548586    96.501244    8813.0398 
  152900    1291.6543   0.33100578    8.6065052  0.018963208         0.05    6.3748734 0.0074801673    96.758011    8811.9622 
  153000    1292.3951   0.33111677    8.6119675  0.018963208         0.05    6.6467868 0.0072264056    97.243258    8810.8561 
  153100    1293.1682   0.33128511    8.6167582  0.018963208         0.05    6.2744161 0.0077863912    95.606958    8809.8474 
  153200    1293.9512     0.331038    8.6213996  0.018963208         0.05    5.7697162 0.0081772344    97.641843    8808.7182 
  153300    1294.7609   0.33141053    8.6273027  0.018963208         0.05    5.9428731 0.0081366189    97.102666    8807.6205 
  153400    1295.5707   0.33159204    8.6329477  0.018963208         0.05    6.0250182 0.0080215048    95.595801    8806.6125 
  153500    1296.3682   0.33168607    8.6384856  0.018963208         0.05    6.1015911 0.0081872924     96.77413    8805.5342 
  153600    1297.1799   0.33190838    8.6431916  0.018963208         0.05    6.2062229 0.0080485533    95.681701     8804.521 
  153700    1297.9701    0.3312263    8.6483214  0.018963208         0.05     6.120662 0.0078833826    96.885699    8803.4363 
  153800    1298.7535   0.33106076    8.6537617  0.018963208         0.05    6.3401486 0.0076037109    95.307091    8802.4456 
  153900    1299.6249   0.33192615    8.6592685  0.018963208         0.05    5.3879513 0.0089321803    98.079979    8801.2918 
  154000    1300.5156   0.33166163    8.6650138  0.018963208         0.05    5.4772043 0.0088068175    96.930682    8800.2046 
  154100    1301.3944   0.33192082    8.6707562  0.018963208         0.05    5.5312658 0.0088203719    96.203715    8799.1603 
  154200    1302.2651   0.33221716    8.6762974  0.018963208         0.05    5.6183667 0.0088055449    95.948099    8798.1311 
  154300    1303.1388   0.33149713    8.6817044  0.018963208         0.05    5.7057308 0.0086734824    96.560428    8797.0657 
  154400    1303.9985   0.33155466    8.6875361  0.018963208         0.05    5.7931861 0.0085358476    95.978508    8796.0348 
  154500    1304.8472   0.33192571    8.6930133  0.018963208         0.05    5.9386565 0.0083181537    96.296902    8794.9849 
  154600    1305.6523   0.33192377    8.6977917  0.018963208         0.05    5.8001944 0.0079473915     98.04199    8793.8341 
  154700    1306.4411   0.33121805    8.7016504  0.018963208         0.05    6.0329197 0.0078948688    97.271629    8792.7275 
  154800    1307.2262   0.33036202    8.7057481  0.018963208         0.05    6.0734349 0.0078280759    97.248737    8791.6223 
  154900    1308.0049   0.33107292    8.7104777  0.018963208         0.05    6.1511103 0.0077384641    96.410254     8790.566 
  155000    1308.7733   0.33191741    8.7141063  0.018963208         0.05    6.3159714 0.0075994762    94.722633    8789.6105 
  155100    1309.5588   0.33083408    8.7190511  0.018963208         0.05    6.0351974 0.0079385683    98.028448     8788.461 
  155200    1310.3491   0.33086117    8.7234233  0.018963208         0.05    5.7033278 0.0080848152    97.830987    8787.3228 
  155300    1311.1519   0.33093708    8.7285989  0.018963208         0.05    5.8834911 0.0078983147    96.083275    8786.2859 
  155400    1311.9526   0.33110925    8.7330128  0.018963208         0.05    5.5628146 0.0081406738    97.786488    8785.1504 
  155500    1312.7624   0.33069617    8.7374637  0.018963208         0.05     5.650863 0.0080102784    95.018936    8784.1769 
  155600    1313.5529   0.33050394    8.7425356  0.018963208         0.05    5.7973881 0.0077228283      95.5831    8783.1695 
  155700    1314.4252   0.33110851    8.7478372  0.018963208         0.05    5.3520883 0.0086648211    96.236008    8782.1237 
  155800    1315.3116   0.33199025    8.7536778  0.018963208         0.05    5.4421925 0.0090033116     97.27296    8781.0178 
  155900    1316.1918   0.33188485    8.7588011  0.018963208         0.05    5.0252015  0.008514458    98.311596    8779.8532 
  156000    1317.0481   0.33170447    8.7635727  0.018963208         0.05    5.3508754 0.0085629022    97.020031     8778.762 
  156100    1317.8934   0.33062689    8.7688408  0.018963208         0.05    5.0049302 0.0083562895    99.000297    8777.5595 
  156200    1318.7297   0.33070405    8.7741901  0.018963208         0.05    5.1892309 0.0084000087    99.024114    8776.3559 
  156300    1319.5696   0.33119122    8.7789143  0.018963208         0.05    5.3686246  0.008435146    98.551487    8775.1786 
  156400    1320.4134   0.33005399    8.7842871  0.018963208         0.05    5.2116897 0.0094029752    95.548958    8774.1736 
  156500    1321.3083   0.33020582     8.789923  0.018963208         0.05    5.2971734 0.0083800105    93.876071    8773.2691 
  156600    1322.1478   0.33215716    8.7948615  0.018963208         0.05    5.3822684 0.0083571528    93.496658    8772.3876 
  156700    1322.9827   0.32997908     8.800403  0.018963208         0.05     5.379811 0.0083199242       93.749    8771.4904 
  156800    1323.8422   0.33048238    8.8053121  0.018963208         0.05    5.2819082 0.0089387251    94.177749    8770.5669 
  156900    1324.7283   0.33173115    8.8110184  0.018963208         0.05    5.3524161 0.0089124577    92.821731    8769.7265 
  157000    1325.6121   0.33191182    8.8165927  0.018963208         0.05    5.4414626 0.0087868914    91.980754    8768.9387 
  157100    1326.4863   0.33107305    8.8222472  0.018963208         0.05    5.4910548 0.0083785076    92.958474    8768.0892 
  157200    1327.3345   0.33197903    8.8281474  0.018963208         0.05    5.3352288 0.0084494737    92.962121    8767.2392 
  157300    1328.1752   0.33112416    8.8335616  0.018963208         0.05    5.4420271  0.008344228    93.446061    8766.3591 
  157400    1329.0055   0.33127027    8.8386601  0.018963208         0.05    5.4745156 0.0085271404    96.800931    8765.2801 
  157500    1329.8368   0.33103071    8.8438467  0.018963208         0.05    5.1765552 0.0081616034    97.241365    8764.1762 
  157600    1330.6575   0.32985101     8.849234  0.018963208         0.05    5.2649894 0.0091998098    96.133684    8763.1357 
  157700    1331.5651   0.33138818    8.8547119  0.018963208         0.05    5.2873897 0.0091243428    97.798937    8762.0007 
  157800    1332.4671   0.33111365    8.8608971  0.018963208         0.05    5.0827102 0.0090558891    97.137365    8760.9029 
  157900    1333.3657   0.33136778     8.867206  0.018963208         0.05    4.8791337 0.0089392036    95.110379    8759.9222 
  158000    1334.2563   0.33079751    8.8728075  0.018963208         0.05    4.9849477  0.008761061    97.681047     8758.794 
  158100    1335.1182   0.33158998     8.878046  0.018963208         0.05    5.6386098 0.0086856004    95.481898    8757.7915 
  158200    1335.9775   0.33166825    8.8837053  0.018963208         0.05    5.0162535 0.0086607109    94.901958     8756.823 
  158300    1336.8454   0.33028555    8.8888007  0.018963208         0.05    5.7468121 0.0084761398    96.388984    8755.7679 
  158400    1337.6799   0.33200787    8.8937776  0.018963208         0.05    4.9136973  0.008364349     97.62164    8754.6433 
  158500    1338.5121   0.33054102    8.8988257  0.018963208         0.05    4.9931079 0.0082702571    94.724323    8753.6851 
  158600    1339.3349   0.33105337    8.9037661  0.018963208         0.05    5.5941431 0.0081329593    95.547586    8752.6785 
  158700    1340.1523   0.33168787    8.9085148  0.018963208         0.05    5.1590614 0.0081462597    97.051662    8751.5859 
  158800    1340.9628   0.33162454    8.9135369  0.018963208         0.05    5.2688618  0.008057158    95.781227    8750.5658 
  158900    1341.7644   0.33062771     8.919044  0.018963208         0.05    5.2966332 0.0079253308    94.961883    8749.5934 
  159000    1342.5671   0.33033749    8.9240233  0.018963208         0.05    5.6011435 0.0083101056     95.30027     8748.601 
  159100    1343.4043   0.33101954    8.9295341  0.018963208         0.05    5.7508881 0.0083723764    95.896043    8747.5742 
  159200    1344.2117   0.33191354    8.9344888  0.018963208         0.05    5.5229337 0.0087690994    97.781815     8746.441 
  159300     1345.063   0.33183928    8.9400848  0.018963208         0.05    5.6243275 0.0084302311    97.200148    8745.3404 
  159400     1345.892   0.33179848    8.9455242  0.018963208         0.05    5.8943451 0.0079730761    96.158479    8744.2986 
  159500    1346.6734   0.33131771    8.9497671  0.018963208         0.05    5.9931952 0.0077724193    97.675974    8743.1716 
  159600    1347.4489   0.33047439    8.9548639  0.018963208         0.05    6.1817388 0.0075389388    96.993601    8742.0828 
  159700    1348.2501   0.33144996    8.9591749  0.018963208         0.05    5.6691183 0.0080359505    96.348952    8741.0302 
  159800    1349.0464   0.33128331    8.9640406  0.018963208         0.05    5.7458086 0.0079419249    96.675895    8739.9593 
  159900    1349.8283   0.33085291    8.9687817  0.018963208         0.05    5.7839634 0.0077961986    97.115009    8738.8638 
  160000     1350.601   0.33167621    8.9735536  0.018963208         0.05    5.1322104 0.0079372133    95.927669    8737.8353 
  160100    1351.3956   0.33140712    8.9787258  0.018963208         0.05    5.1550508 0.0079131802    96.177883    8736.7926 
  160200    1352.1832   0.33099082    8.9837968  0.018963208         0.05    5.2342494 0.0078058256      95.5141    8735.7878 
  160300    1352.9847   0.33205686    8.9890955  0.018963208         0.05    5.4752007 0.0087119801    97.040076    8734.6966 
  160400    1353.8579   0.33127463    8.9938182  0.018963208         0.05    5.6326889 0.0087354182    97.697178    8733.5693 
  160500    1354.7106   0.33159593    8.9983499  0.018963208         0.05    5.7222692 0.0086204037    97.819032    8732.4354 
  160600    1355.5322   0.33094324    9.0033314  0.018963208         0.05    5.7494499 0.0082152587    99.236779    8731.2253 
  160700    1356.3614   0.33062718    9.0076777  0.018963208         0.05     5.809911 0.0084864277    98.206929    8730.0707 
  160800    1357.2041   0.32986986    9.0118684  0.018963208         0.05    5.8954192  0.008366809    96.346252    8729.0188 
  160900    1358.0268   0.33103205    9.0164628  0.018963208         0.05    5.9802725 0.0082466704    96.682536    8727.9482 
  161000    1358.8454   0.33088016    9.0211316  0.018963208         0.05    6.0602058 0.0081336157    95.616744    8726.9377 
  161100    1359.6567   0.33113873    9.0257813  0.018963208         0.05    6.1133987 0.0080632135    95.863298    8725.9131 
  161200    1360.4585   0.32977973    9.0301116  0.018963208         0.05    6.1935709 0.0079617127    92.721472    8725.0724 
  161300    1361.2502   0.32963816    9.0349967  0.018963208         0.05     6.272745 0.0078639188    92.293318    8724.2575 
  161400    1362.0559   0.33059699    9.0403536  0.018963208         0.05    5.3309282 0.0086842314    93.118893    8723.3923 
  161500    1362.8956   0.33228504    9.0453525  0.018963208         0.05    5.3103751  0.008376484    93.523488    8722.5027 
  161600    1363.7176   0.33099085    9.0501624  0.018963208         0.05    5.3893267 0.0083490804    93.064904    8721.6402 
  161700    1364.5832   0.33021088    9.0557117  0.018963208         0.05    5.9309315 0.0083700304    94.595032    8720.6874 
  161800    1365.4535   0.33051949    9.0605533  0.018963208         0.05     4.860983 0.0093398772    98.360334    8719.5248 
  161900    1366.3894   0.33075691    9.0660929  0.018963208         0.05     4.963145 0.0093148772    97.423233     8718.413 
  162000     1367.301   0.33060898    9.0715596  0.018963208         0.05    4.8624527 0.0075318344    96.057794    8717.3768 
  162100    1368.0837   0.33023643    9.0768095  0.018963208         0.05     4.897202 0.0087275534    95.558732    8716.3686 
  162200    1368.9738   0.32882776    9.0821167  0.018963208         0.05     4.990928 0.0089032903    97.943179    8715.2289 
  162300    1369.8584    0.3293757    9.0868449  0.018963208         0.05    5.1015486 0.0087570776    96.138224    8714.1882 
  162400    1370.7181   0.33091184    9.0919472  0.018963208         0.05    5.0770917 0.0086472894    96.861871    8713.1074 
  162500    1371.5817   0.33133976    9.0968831  0.018963208         0.05    5.1336894 0.0086210567     97.33951    8712.0006 
  162600    1372.4389   0.33035111     9.101824  0.018963208         0.05    5.2185381 0.0085110387    96.296349    8710.9512 
  162700    1373.2857   0.33145875    9.1076853  0.018963208         0.05    5.3010176 0.0084104043    96.359532    8709.8983 
  162800    1374.1214   0.33086187    9.1134342  0.018963208         0.05    5.1822399 0.0088046935    96.747365    8708.8241 
  162900     1375.005   0.33103646    9.1186646  0.018963208         0.05    5.0114184 0.0088672375     96.98925    8707.7366 
  163000    1375.8883   0.33185291    9.1241084  0.018963208         0.05     5.211021 0.0088407581    96.278268    8706.6883 
  163100    1376.8269   0.33272225    9.1301391  0.018963208         0.05    4.8788902 0.0095221573    97.710174     8705.562 
  163200    1377.7705   0.33175586    9.1363331  0.018963208         0.05    4.7852792 0.0094406914    96.822383    8704.4838 
  163300    1378.6912   0.33198228    9.1413051  0.018963208         0.05    5.2943414 0.0083405777    97.595063    8703.3638 
  163400    1379.5232   0.33046863    9.1463558  0.018963208         0.05     5.372716 0.0082673395    97.165021    8702.2672 
  163500    1380.3455   0.33168163    9.1515381  0.018963208         0.05    5.4563219 0.0081675175    96.116325    8701.2281 
  163600    1381.1578   0.33097711    9.1563852  0.018963208         0.05    5.5677917  0.008050806    95.984856    8700.1962 
  163700    1381.9621   0.33155476    9.1612637  0.018963208         0.05    5.5796481 0.0080853981    97.709104    8699.0705 
  163800    1382.7624   0.33119769     9.166002  0.018963208         0.05    5.6923672 0.0079496524     96.19361    8698.0272 
  163900    1383.5543   0.33121866    9.1713259  0.018963208         0.05    5.7729937 0.0078093271    95.918675     8696.999 
  164000    1384.4541    0.3317744    9.1768694  0.018963208         0.05    4.9178038 0.0092764839    96.632729    8695.9316 
  164100     1385.373   0.33197679    9.1824216  0.018963208         0.05    5.0472322 0.0091011982    94.578203    8694.9788 
  164200    1386.2766   0.33037944    9.1883404  0.018963208         0.05    5.1253419 0.0089229771    95.882057    8693.9526 
  164300    1387.1443   0.33263229    9.1940295  0.018963208         0.05    5.2010862 0.0089491583    96.961896    8692.8673 
  164400    1388.0346   0.33202601     9.200224  0.018963208         0.05    5.5231649 0.0088824611    98.249878    8691.7134 
  164500    1388.9088   0.33188878     9.206139  0.018963208         0.05    5.6105827 0.0088133443    96.136373    8690.6733 
  164600    1389.7778   0.33198582    9.2118519  0.018963208         0.05    5.7197846 0.0079017065    96.534804    8689.6114 
  164700    1390.5896   0.33194172    9.2167876  0.018963208         0.05    5.7545853 0.0085304381    97.378177     8688.504 
  164800    1391.4442   0.33043231    9.2221117  0.018963208         0.05    5.7369093 0.0086022073    98.513526    8687.3368 
  164900    1392.3044    0.3298808    9.2268274  0.018963208         0.05    5.7778132 0.0085477394    97.541749    8686.2209 
  165000    1393.1509   0.33090362    9.2320365  0.018963208         0.05    5.8091454 0.0084651286    95.931728    8685.1922 
  165100    1393.9928   0.33106028    9.2377049  0.018963208         0.05     5.776635  0.008274963    96.796999    8684.1164 
  165200    1394.8127   0.33049967    9.2425976  0.018963208         0.05    5.0149146 0.0089676581    97.712063    8682.9918 
  165300    1395.7295   0.33206235    9.2482856  0.018963208         0.05    5.0613121 0.0091785266     97.85751    8681.8596 
  165400    1396.6081   0.33180333    9.2546458  0.018963208         0.05    5.3006987  0.008577668    97.448403    8680.7491 
  165500    1397.4663    0.3295057    9.2608115  0.018963208         0.05    5.7375068 0.0086839877    97.128975    8679.6558 
  165600    1398.3698   0.32912996    9.2667919  0.018963208         0.05    5.1257266  0.009303557    96.610805    8678.5904 
  165700    1399.2894   0.33097585     9.273144  0.018963208         0.05    5.2890568 0.0091159503    94.901958    8677.6189 
  165800    1400.1808   0.33033929    9.2788334  0.018963208         0.05    5.6249862  0.008867816    97.267275    8676.5184 
  165900    1401.0613   0.33116921    9.2845482  0.018963208         0.05    5.7127356 0.0087339681    94.751607    8675.5551 
  166000    1401.9286    0.3314166    9.2894739  0.018963208         0.05    5.6967205  0.008759868    96.339015    8674.5044 
  166100    1402.7926   0.33249888    9.2947292  0.018963208         0.05    5.7467513 0.0076938117    96.358071    8673.4527 
  166200    1403.5652   0.33176388    9.2994553  0.018963208         0.05    5.8208402 0.0076928169    96.657582    8672.3849 
  166300    1404.3259   0.33078578    9.3053064  0.018963208         0.05    5.9224401 0.0075681853    96.717672    8671.3139 
  166400    1405.0804   0.33054213    9.3097255  0.018963208         0.05    5.8009668 0.0075031604    95.150576    8670.3282 
  166500    1405.8411   0.33110283    9.3147123  0.018963208         0.05    6.0948452 0.0079225185    96.730676    8669.2565 
  166600    1406.6449    0.3310845    9.3203086  0.018963208         0.05    6.1074508 0.0080016465      97.8066     8668.128 
  166700    1407.4391   0.33119067    9.3253876  0.018963208         0.05    5.3429101 0.0079502235    97.750936    8667.0025 
  166800    1408.2321   0.33135425     9.331079  0.018963208         0.05     5.429654 0.0078025359    95.094465    8666.0199 
  166900     1409.018    0.3312491    9.3366267  0.018963208         0.05    5.5082458 0.0078214154    96.337068    8664.9695 
  167000    1409.8581   0.33056066    9.3423523  0.018963208         0.05    5.6020533 0.0088001726    96.275306    8663.9224 
  167100    1410.7333   0.33030772    9.3480056  0.018963208         0.05    5.7417337 0.0086810809    95.357794    8662.9252 
  167200    1411.5857    0.3309747    9.3540573  0.018963208         0.05    5.8238831 0.0084796129    98.632067    8661.7544 
  167300    1412.4277   0.33013822    9.3597354  0.018963208         0.05       5.7957 0.0084159729    94.986529    8660.7776 
  167400     1413.264   0.33167797     9.365259  0.018963208         0.05    6.1238467 0.0080765455    95.048349    8659.7973 
  167500    1413.9803   0.33145339    9.3696496  0.018963208         0.05    6.8890491 0.0069988765    96.082703    8658.7606 
  167600    1414.6696   0.33187191    9.3736748  0.018963208         0.05    5.6994994 0.0081644576    95.033188    8657.7809 
  167700    1415.4656   0.33123879    9.3786175  0.018963208         0.05    5.8569791 0.0079372427    97.515307    8656.6683 
  167800    1416.2642   0.33007716    9.3841607  0.018963208         0.05    5.8324217 0.0080373666    96.823054    8655.5921 
  167900    1417.0814   0.33222448    9.3897468  0.018963208         0.05    5.8223444 0.0082300761    98.532156    8654.4272 
  168000    1417.8979   0.33173464    9.3950429  0.018963208         0.05    5.9072914 0.0078786549    95.504792    8653.4217 
  168100    1418.6958   0.33062488    9.4010749  0.018963208         0.05    6.1263684 0.0079606533    96.527783    8652.3614 
  168200    1419.4819   0.33068119    9.4065926  0.018963208         0.05    6.0857614  0.007758469     96.50453    8651.3022 
  168300    1420.3222   0.33113704    9.4125216  0.018963208         0.05    5.4168617 0.0085836779    97.053728    8650.2142 
  168400    1421.1666   0.33050503    9.4175902  0.018963208         0.05    5.4992485 0.0083219306    97.721147    8649.0914 
  168500    1422.0011    0.3309437    9.4223895  0.018963208         0.05    5.5853995 0.0083564375    97.900817    8647.9595 
  168600    1422.8369   0.33138068    9.4279105  0.018963208         0.05      5.51057 0.0084516993    95.689101    8646.9442 
  168700    1423.6587   0.33210148    9.4326078  0.018963208         0.05    5.6240059  0.007926958    96.833537    8645.8679 
  168800    1424.4531   0.33081659     9.437882  0.018963208         0.05    5.7905779 0.0078396122    98.621677    8644.6995 
  168900    1425.2648   0.33239652    9.4429394  0.018963208         0.05    5.8751133 0.0079586462    96.128242    8643.6607 
  169000    1426.0918    0.3302488    9.4486457  0.018963208         0.05    5.9104864 0.0083885386    95.021992    8642.6815 
  169100    1426.9228   0.33179782    9.4535923  0.018963208         0.05    6.0783504 0.0081626086    95.225472    8641.6911 
  169200    1427.7939    0.3308804    9.4594516  0.018963208         0.05    5.0526957 0.0094307136    96.973553    8640.6077 
  169300    1428.7281   0.33182941    9.4657155  0.018963208         0.05    5.2069074 0.0092659685    95.085691    8639.6248 
  169400     1429.638   0.33098897    9.4715511  0.018963208         0.05    5.1552764 0.0094242953    97.257148    8638.5267 
  169500    1430.5741   0.33183006    9.4775549  0.018963208         0.05    5.5090127 0.0089288052    96.198066    8637.4842 
  169600     1431.486   0.32972957    9.4834415  0.018963208         0.05     5.247266 0.0090328303     95.81315    8636.4621 
  169700    1432.3961   0.33163241    9.4888247  0.018963208         0.05    5.1986962 0.0090062125    96.808528    8635.3875 
  169800    1433.3071   0.33110889    9.4951837  0.018963208         0.05    5.2892738 0.0088664011     97.87322     8634.258 
  169900    1434.1849   0.33104049    9.5006774  0.018963208         0.05    5.5172373 0.0086181003    96.915272    8633.1779 
  170000     1435.061   0.33120516    9.5071455  0.018963208         0.05    5.6029461 0.0086217827    96.550448     8632.117 
  170100    1435.9119   0.33054321    9.5127378  0.018963208         0.05    5.6967707 0.0086326117      96.4469    8631.0615 
  170200    1436.7625   0.33048924    9.5179549  0.018963208         0.05    5.8234799 0.0082917988    96.904189    8629.9821 
  170300     1437.597   0.33074177    9.5239214  0.018963208         0.05    5.7225452 0.0084301434    98.571313    8628.8178 
  170400    1438.4467   0.33036718    9.5300174  0.018963208         0.05    5.7428766 0.0085224317    97.139525    8627.7265 
  170500    1439.2822   0.33095692    9.5357813  0.018963208         0.05    6.0520694 0.0081674031    96.318706    8626.6779 
  170600    1440.0947   0.33118285    9.5407231  0.018963208         0.05    6.1270496  0.008068028    94.888002    8625.7054 
  170700    1440.8962   0.33141119    9.5454538  0.018963208         0.05    6.0835575 0.0080057554    96.364735    8624.6544 
  170800    1441.6887   0.33061075    9.5508131  0.018963208         0.05    6.0872415 0.0079433419    98.054024    8623.5166 
  170900    1442.4953   0.33098604    9.5560883  0.018963208         0.05    5.5864548 0.0081429197    97.369858    8622.4137 
  171000    1443.3147    0.3310791    9.5610692  0.018963208         0.05    5.4547451 0.0083196264    95.325156    8621.4177 
  171100    1444.1698    0.3318966    9.5665977  0.018963208         0.05    4.9883743 0.0089317944    98.244263    8620.2706 
  171200    1445.0562   0.33150854    9.5731351  0.018963208         0.05    5.1459549 0.0087901606    95.626336    8619.2586 
  171300    1445.9383   0.33178288    9.5790303  0.018963208         0.05    5.6176926 0.0084743559    96.434726    8618.2041 
  171400    1446.7317   0.33121106    9.5845956  0.018963208         0.05    6.4606901 0.0077094506    96.678591    8617.1371 
  171500    1447.5306   0.33128138    9.5899558  0.018963208         0.05    5.8050771  0.007944618    96.486925    8616.0799 
  171600    1448.3205   0.33046267    9.5948378  0.018963208         0.05    5.9033141 0.0078430843    95.590681    8615.0697 
  171700    1449.1009   0.32948179    9.5995857  0.018963208         0.05    5.9819334 0.0077556963    95.363345    8614.0715 
  171800     1449.872    0.3316114    9.6046864  0.018963208         0.05    6.0942087 0.0075527253    96.354884    8613.0212 
  171900    1450.6395   0.33076713    9.6103107  0.018963208         0.05    5.6433441  0.007758199    97.797797    8611.8972 
  172000    1451.4146   0.33233643    9.6151634  0.018963208         0.05    5.6697037 0.0076912652    96.545603    8610.8371 
  172100     1452.216   0.33081543    9.6204078  0.018963208         0.05    5.5443698 0.0080321373    96.996786    8609.7539 
  172200    1453.0224   0.33151228    9.6258892  0.018963208         0.05    5.5346833 0.0081327569    96.523141    8608.6951 
  172300    1453.8313   0.33130589      9.63176  0.018963208         0.05    5.5583723 0.0080387443    94.431299    8607.7465 
  172400    1454.6243   0.33178282    9.6372318  0.018963208         0.05    5.6567711 0.0080078526    96.461207    8606.6908 
  172500    1455.4279   0.33252359    9.6426778  0.018963208         0.05    5.7804953  0.008034382    97.956835    8605.5592 
  172600    1456.2249   0.33233867    9.6474648  0.018963208         0.05    5.5320252 0.0077015702    96.132473    8604.5206 
  172700    1457.0375   0.33013197    9.6525953  0.018963208         0.05     5.638723 0.0083372191    96.974226    8603.4388 
  172800    1457.8658   0.33161179    9.6575166  0.018963208         0.05    5.7210687  0.008229655    95.750593    8602.4201 
  172900    1458.6862   0.33127965    9.6628471  0.018963208         0.05    5.7395092  0.008061329    95.542559    8601.4123 
  173000    1459.4938   0.33077185    9.6679701  0.018963208         0.05      5.92873 0.0081102608    98.723978    8600.2431 
  173100    1460.2973   0.33192714    9.6728333  0.018963208         0.05    6.0089757 0.0078430962    95.745829    8599.2247 
  173200     1461.093   0.33121697    9.6781642  0.018963208         0.05    6.1511178 0.0078403188    94.694191    8598.2616 
  173300    1461.8729   0.33167713    9.6826275  0.018963208         0.05    6.1512405 0.0077900304    96.736298     8597.192 
  173400    1462.6567   0.33169484    9.6875769  0.018963208         0.05     6.159532  0.007801306    95.353524     8596.194 
  173500    1463.4327   0.33238926    9.6922894  0.018963208         0.05    6.2488525 0.0077051271    94.713029    8595.2297 
  173600    1464.1986   0.33104098    9.6971497  0.018963208         0.05    6.3371819 0.0076094057    95.425852    8594.2277 
  173700    1464.9533   0.33247105     9.702251  0.018963208         0.05    5.4413955 0.0084157277    94.919612    8593.2523 
  173800    1465.7769   0.33179039    9.7076584  0.018963208         0.05    5.6519791 0.0083099236    95.695891    8592.2361 
  173900    1466.6153   0.33082682    9.7138199  0.018963208         0.05    5.5314754 0.0083419043    96.723114    8591.1672 
  174000    1467.4595   0.33044719    9.7195444  0.018963208         0.05    5.6171207 0.0084205157    93.688502    8590.2573 
  174100    1468.2384   0.33103019    9.7243239  0.018963208         0.05    5.7182259 0.0082264132    96.838791    8589.1825 
  174200    1469.0274   0.33114028    9.7293722  0.018963208         0.05    5.5736189 0.0081627781    96.746227    8588.1124 
  174300     1469.843   0.33047224    9.7349385  0.018963208         0.05    5.6571776 0.0082148434    96.325187    8587.0638 
  174400    1470.6471   0.33063528    9.7400812  0.018963208         0.05    5.7005663 0.0077503714    96.265672    8586.0183 
  174500    1471.4152   0.33103164    9.7439246  0.018963208         0.05    5.8942916 0.0076409266    97.642412    8584.9034 
  174600    1472.1786   0.33106082    9.7489965  0.018963208         0.05    6.2291234 0.0076253133    95.741348    8583.8848 
  174700    1472.9347   0.32987852    9.7543083  0.018963208         0.05    5.4417728 0.0074405783    94.656899    8582.9227 
  174800    1473.6815   0.32970214    9.7591821  0.018963208         0.05    5.4013242 0.0074959415    97.110759    8581.8344 
  174900    1474.4405    0.3301129     9.763764  0.018963208         0.05    5.6554724 0.0076447073    96.702441    8580.7668 
  175000     1475.201   0.33130249    9.7684317  0.018963208         0.05    5.5896609 0.0075793484    95.755534    8579.7474 
  175100    1475.9583   0.33032504    9.7732751  0.018963208         0.05    5.5340069 0.0077586749    94.933039    8578.7705 
  175200    1476.7255   0.33001534    9.7785612  0.018963208         0.05     5.648925 0.0073748317    95.620122     8577.758 
  175300    1477.4673   0.32892782    9.7830751  0.018963208         0.05    5.6450393 0.0073748721    97.529592    8576.6491 
  175400    1478.2946   0.33059847    9.7889788  0.018963208         0.05    5.7640103 0.0084748476    96.555938    8575.5889 
  175500    1479.1351   0.33035073    9.7944343  0.018963208         0.05    5.8581078 0.0082851353    95.560626    8574.5794 
  175600    1479.9546   0.33122694    9.7997033  0.018963208         0.05    5.9795258 0.0079453329    96.374677    8573.5284 
  175700    1480.8014   0.33088109    9.8049493  0.018963208         0.05    5.1479594  0.008814832    97.570317    8572.4177 
  175800     1481.679   0.33107016    9.8097416  0.018963208         0.05    5.2537935 0.0086552539    96.365576    8571.3672 
  175900    1482.5422   0.33044345    9.8147859  0.018963208         0.05    5.3786326 0.0086372677    97.099631    8570.2799 
  176000    1483.4181   0.33145493    9.8199976  0.018963208         0.05    5.2204833 0.0088368447    98.411522    8569.1285 
  176100    1484.2861   0.33099816    9.8255348  0.018963208         0.05    5.3398173 0.0085385063    96.810114    8568.0558 
  176200    1485.1514     0.330141     9.831099  0.018963208         0.05     5.185011 0.0090404023    97.182874    8566.9647 
  176300    1486.0712   0.33101688    9.8363379  0.018963208         0.05    5.2424173  0.008659141    97.282029    8565.8687 
  176400    1486.9537   0.33061641    9.8413809  0.018963208         0.05    5.3467956 0.0088681479     98.77822    8564.7001 
  176500    1487.8411   0.33074769     9.846343  0.018963208         0.05    5.4761051 0.0090157022    96.693368    8563.6336 
  176600    1488.7297   0.33207346    9.8518461  0.018963208         0.05    5.8095621 0.0085323389    94.459307    8562.6811 
  176700    1489.5721   0.33113743      9.85767  0.018963208         0.05    5.9904228 0.0083078806    95.557339    8561.6718 
  176800    1490.3977   0.32975317    9.8637552  0.018963208         0.05    6.0705001 0.0082015854    95.397376    8560.6706 
  176900    1491.2143    0.3309418    9.8684628  0.018963208         0.05    6.1409083 0.0081114346    95.416279    8559.6685 
  177000    1492.0194   0.33175788    9.8740786  0.018963208         0.05    6.2797071 0.0079174856    94.265906    8558.7257 
  177100    1492.8177   0.33290082     9.878869  0.018963208         0.05    5.8559417 0.0082722976    96.358979    8557.6757 
  177200    1493.6404    0.3313699    9.8841904  0.018963208         0.05    5.9350606 0.0081684963     96.30181    8556.6287 
  177300    1494.4519    0.3312824    9.8885917  0.018963208         0.05    6.0171239 0.0080496429    95.429782    8555.6256 
  177400    1495.2524   0.33065975    9.8936783  0.018963208         0.05    6.0899294 0.0079749174    96.065362    8554.5904 
  177500    1496.0653   0.33144862    9.8985233  0.018963208         0.05    5.3493624 0.0085480595    96.611628    8553.5278 
  177600    1496.9724   0.33091691    9.9045966  0.018963208         0.05    5.2761646 0.0089566172    96.502087    8552.4708 
  177700    1497.8743   0.33077958    9.9100095  0.018963208         0.05    5.3762073 0.0089933691    96.491475    8551.4143 
  177800    1498.7627   0.33080016    9.9147558  0.018963208         0.05    5.4697631    0.0091029     97.30286    8550.3178 
  177900    1499.6655   0.33075676    9.9206307  0.018963208         0.05    5.5614839 0.0089542763    95.709539    8549.3005 
  178000    1500.5543    0.3304833    9.9267528  0.018963208         0.05    5.6563594  0.008804388    94.540917    8548.3428 
  178100    1501.4279    0.3324316    9.9321558  0.018963208         0.05    5.7295336 0.0086899748    95.228845    8547.3498 
  178200    1502.2853   0.33232329     9.937465  0.018963208         0.05    5.8124274  0.008435223     96.73632    8546.2812 
  178300     1503.127   0.33185359    9.9422481  0.018963208         0.05    5.9034943 0.0083052753    95.976751    8545.2503 
  178400    1503.9498   0.33220001    9.9471183  0.018963208         0.05    5.9370206 0.0081567562    97.686484    8544.1355 
  178500     1504.762   0.33114765    9.9527856  0.018963208         0.05    6.0080856 0.0081475427    96.276411    8543.0897 
  178600    1505.5694   0.33117653     9.958092  0.018963208         0.05    6.0930182 0.0080066262    94.745057    8542.1212 
  178700    1506.4008   0.33142752    9.9637397  0.018963208         0.05    4.9831617 0.0086604714    95.580377    8541.1101 
  178800     1507.259   0.33194069    9.9693421  0.018963208         0.05    5.0689849 0.0086164344    96.000696    8540.0781 
  178900    1508.1302    0.3306642    9.9751002  0.018963208         0.05    5.1929343 0.0092439281    97.499621    8538.9724 
  179000    1509.0544   0.33120042    9.9812554  0.018963208         0.05    5.3035744 0.0091626743    96.325939    8537.9242 
  179100    1509.9736   0.33099345    9.9872209  0.018963208         0.05     5.441475 0.0091651786    95.483442     8536.918 
  179200    1510.8651   0.33128488    9.9922311  0.018963208         0.05    6.0108751 0.0079769977    96.810114     8535.846 
  179300    1511.6837   0.33064085    9.9973132  0.018963208         0.05    5.8968751 0.0081793458    97.202784     8534.755 
  179400    1512.4971    0.3296245    10.003006  0.018963208         0.05    5.9435643 0.0080831142    95.397636    8533.7531 
  179500    1513.3002   0.33035483    10.007197  0.018963208         0.05    6.0309903 0.0079594543    95.429869    8532.7495 
  179600    1514.0988   0.33009034    10.012363  0.018963208         0.05    6.0772061 0.0080087773    96.723582    8531.6818 
  179700    1514.8953   0.33207319    10.016812  0.018963208         0.05    6.1568552 0.0081082418    94.735813    8530.7132 
  179800    1515.6975    0.3310443    10.021568  0.018963208         0.05    6.4268157 0.0077440389    96.285871    8529.6669 
  179900    1516.4755   0.33029723    10.026339  0.018963208         0.05    6.3252635 0.0078117414    97.505899    8528.5615 
  180000    1517.2515   0.32957834    10.031069  0.018963208         0.05    4.3956076 0.0077613891    95.629998    8527.5477 
  180100    1518.0433   0.33100623    10.036178  0.018963208         0.05    5.6308312 0.0081909699    95.414108    8526.5448 
  180200    1518.9428   0.33006968     10.04181  0.018963208         0.05    4.5261295 0.0095148023    97.994735    8525.4162 
  180300    1519.8698    0.3295456    10.047206  0.018963208         0.05    4.8470798 0.0091118986    97.412915    8524.3154 
  180400    1520.7792   0.33043597    10.052405  0.018963208         0.05    4.9494057 0.0086764611    96.109013     8523.278 
  180500       1521.7   0.33022847     10.05825  0.018963208         0.05    5.0414874 0.0092145632     95.66505    8522.2625 
  180600    1522.6072   0.32988965    10.063765  0.018963208         0.05    5.1377645 0.0089892257    95.394989    8521.2604 
  180700    1523.5162   0.33111113    10.069871  0.018963208         0.05    5.2024602 0.0091694803    96.837383    8520.1874 
  180800    1524.4339   0.32984785    10.075297  0.018963208         0.05    5.2338652  0.009187453      95.3408     8519.188 
  180900    1525.3852   0.33117974    10.081189  0.018963208         0.05    5.1206693 0.0095724252    96.366396    8518.1379 
  181000    1526.2507   0.33122592    10.086889  0.018963208         0.05    5.2074026 0.0085404462    95.030582    8517.1539 
  181100    1527.0871   0.32982685    10.092238  0.018963208         0.05    5.2910461 0.0082384886    95.650935    8516.1389 
  181200    1527.9073   0.33074894    10.097155  0.018963208         0.05    5.3691676 0.0083690322    95.943227    8515.1095 
  181300    1528.7755   0.33236582    10.102234  0.018963208         0.05    5.4601802 0.0088616943    95.793434    8514.0875 
  181400    1529.5969   0.33072057    10.107298  0.018963208         0.05     5.122193 0.0091502068    96.323794    8513.0394 
  181500    1530.5212   0.33164605    10.112686  0.018963208         0.05     5.474695 0.0091300369    96.436677     8511.986 
  181600    1531.4275   0.33067488    10.118798  0.018963208         0.05    5.5778992 0.0089548736    95.461101    8510.9802 
  181700    1532.3056   0.33034579    10.123767  0.018963208         0.05    5.6880418 0.0087492432    96.222122    8509.9372 
  181800    1533.1726   0.33046004    10.129297  0.018963208         0.05    5.7165916 0.0085559716    95.806278    8508.9144 
  181900    1534.0014   0.33197847    10.134088  0.018963208         0.05    6.0166003 0.0080455589    97.250068    8507.8219 
  182000    1534.7991   0.33140398    10.139607  0.018963208         0.05    6.0703997 0.0080198063    96.778997     8506.752 
  182100    1535.6054   0.33237946    10.144158  0.018963208         0.05    6.0613988 0.0080877534     97.28573     8505.658 
  182200    1536.4127    0.3309188    10.148588  0.018963208         0.05    5.9064076 0.0082010581    96.362964    8504.6082 
  182300    1537.2518   0.33055807    10.153398  0.018963208         0.05    5.5389002 0.0084452004    97.610508    8503.4989 
  182400    1538.0911    0.3311941    10.158375  0.018963208         0.05    5.6163901 0.0083397093    96.152725    8502.4594 
  182500    1538.9202   0.33118911    10.163205  0.018963208         0.05    5.7096428 0.0082158333    96.369207    8501.4093 
  182600    1539.7445   0.33061567    10.168128  0.018963208         0.05    5.3558753  0.008516231    96.426612    8500.3566 
  182700    1540.5853   0.33156642    10.173437  0.018963208         0.05    5.0465948 0.0083440106    95.793237    8499.3345 
  182800    1541.4157   0.33012308    10.178661  0.018963208         0.05    4.9134491 0.0082551684    95.254429    8498.3388 
  182900     1542.243   0.33028836    10.184113  0.018963208         0.05     5.032446 0.0087348402    97.366332    8497.2413 
  183000     1543.089   0.33098639    10.189014  0.018963208         0.05    5.5797589 0.0084312002    96.580194    8496.1812 
  183100    1543.9308    0.3329129    10.194061  0.018963208         0.05    5.4444308 0.0083946807    93.937653    8495.2511 
  183200    1544.7831   0.33178168    10.199414  0.018963208         0.05    5.5285668 0.0087572788    97.623071    8494.1416 
  183300    1545.6655   0.33137318    10.204802  0.018963208         0.05    4.8992063 0.0092101888    97.922371    8493.0183 
  183400    1546.5857   0.33248905    10.210123  0.018963208         0.05     4.996641  0.009232285    96.910503    8491.9426 
  183500    1547.4898   0.33137736    10.216739  0.018963208         0.05    4.8452587  0.008910628    96.575524    8490.8829 
  183600    1548.3655   0.33255619    10.221979  0.018963208         0.05    4.8788082 0.0084627919    98.081516    8489.7524 
  183700    1549.2181   0.33122927    10.228169  0.018963208         0.05    4.9640645 0.0084864687    96.504241    8488.6962 
  183800    1550.0636   0.33113847    10.233627  0.018963208         0.05    4.3005059 0.0084162853    96.020981    8487.6631 
  183900    1550.8923   0.33158312    10.238795  0.018963208         0.05    5.3127806 0.0082838956    96.994341    8486.5837 
  184000    1551.7085   0.33065398    10.244067  0.018963208         0.05     4.606989 0.0085887534    96.299135    8485.5373 
  184100    1552.5646   0.33243719    10.249785  0.018963208         0.05    4.9122606 0.0085467133    97.392784    8484.4393 
  184200    1553.4308   0.33102276    10.255596  0.018963208         0.05    4.6010782  0.008311409    96.282069    8483.3937 
  184300    1554.2568   0.33120723    10.260463  0.018963208         0.05    4.4601141 0.0082426982    97.298323    8482.3002 
  184400    1555.0769   0.33149312    10.265213  0.018963208         0.05    5.6944762 0.0081795831    96.175766    8481.2598 
  184500    1555.9896   0.33139985    10.271307  0.018963208         0.05    4.7576159 0.0089292043    97.071832     8480.177 
  184600    1556.8917   0.33083754    10.276359  0.018963208         0.05    4.6527629 0.0089644346    97.056086     8479.095 
  184700    1557.8442   0.33029932    10.282482  0.018963208         0.05    4.7746228 0.0096677645    97.325777    8478.0004 
  184800     1558.817   0.33226858    10.288741  0.018963208         0.05    4.8698527 0.0098440051    96.915295    8476.9251 
  184900    1559.7731   0.33052682     10.29525  0.018963208         0.05    5.1036897 0.0096795697    95.862465    8475.8998 
  185000    1560.7319   0.33014084    10.300756  0.018963208         0.05    5.7389977 0.0086588596    95.567768    8474.8886 
  185100    1561.6147   0.33124221    10.306544  0.018963208         0.05    5.6714804 0.0087760147    95.765066     8473.868 
  185200    1562.4853   0.33184572    10.311804  0.018963208         0.05     5.750418 0.0086586151    96.066462    8472.8329 
  185300    1563.3328   0.33060239    10.317862  0.018963208         0.05    5.8345475  0.008400376    96.859634    8471.7603 
  185400    1564.1644   0.33042764    10.323117  0.018963208         0.05    5.8723533 0.0081817208    94.457244    8470.8031 
  185500    1564.9791   0.33054795    10.328422  0.018963208         0.05     5.892897  0.008161305    96.371045    8469.7535 
  185600    1565.7886   0.33109816    10.333567  0.018963208         0.05    5.8699191 0.0080811906    97.697178    8468.6421 
  185700    1566.5916   0.33172308    10.338692  0.018963208         0.05    5.9399715 0.0079413298    95.522127     8467.633 
  185800    1567.3849   0.33093189    10.343468  0.018963208         0.05    5.3646787 0.0084183697     95.82508    8466.6093 
  185900    1568.2693   0.33279033    10.348897  0.018963208         0.05    5.4532939 0.0088845522     95.77635     8465.588 
  186000    1569.1521   0.33045506    10.355399  0.018963208         0.05    5.5239429 0.0087705014    95.526326    8464.5786 
  186100    1570.0232   0.32988309    10.361029  0.018963208         0.05    5.6100071 0.0086366967    94.386184    8463.6244 
  186200    1570.8556   0.33037858    10.365921  0.018963208         0.05     5.615968  0.008882231    97.461151    8462.5241 
  186300    1571.7097   0.33027742    10.371653  0.018963208         0.05    5.6998742 0.0083064012    98.378029     8461.382 
  186400    1572.5181   0.33104676    10.377477  0.018963208         0.05    6.1332659 0.0077075013    95.707529    8460.3639 
  186500    1573.2843   0.33145397     10.38252  0.018963208         0.05    6.1799964 0.0076230663     95.40126    8459.3604 
  186600    1574.0415   0.33017419    10.387192  0.018963208         0.05    6.2293644 0.0074770501    94.629414    8458.3941 
  186700    1574.8286   0.33026122    10.392293  0.018963208         0.05     5.934542 0.0082603899    96.859611    8457.3218 
  186800    1575.6424   0.33117706      10.3973  0.018963208         0.05    6.0145271 0.0081498306    96.451646    8456.2684 
  186900    1576.4523   0.32971545    10.402039  0.018963208         0.05    6.1157488 0.0080315455    95.905033    8455.2408 
  187000    1577.2508   0.33041181    10.406702  0.018963208         0.05    6.1984949 0.0079288042    93.992386    8454.3055 
  187100    1578.0276   0.33046706    10.412366  0.018963208         0.05    6.0848653 0.0074160432    95.727779    8453.2862 
  187200    1578.8176   0.33093062    10.417451  0.018963208         0.05    6.1631836 0.0079048541    95.753151    8452.2657 
  187300    1579.6038   0.33179362    10.423058  0.018963208         0.05    6.2410632 0.0078101002     95.76159    8451.2447 
  187400    1580.3777   0.33078172    10.428324  0.018963208         0.05    6.2863369  0.007732197    96.717984    8450.1789 
  187500    1581.0894   0.33113116    10.433259  0.018963208         0.05     6.525191 0.0067192715    96.398444    8449.1281 
  187600    1581.7645   0.33135722    10.437808  0.018963208         0.05    6.6892452 0.0073548737    96.199545    8448.0865 
  187700    1582.4965   0.33177592    10.442878  0.018963208         0.05    6.7628289 0.0072784586    95.387353    8447.0832 
  187800    1583.2206   0.33253855    10.447958  0.018963208         0.05    6.8639911 0.0071825695    93.595531    8446.1667 
  187900    1583.9367   0.33339185    10.452554  0.018963208         0.05    6.9260571 0.0071251351    94.824032    8445.1902 
  188000     1584.646    0.3329018    10.457043  0.018963208         0.05    6.9983727 0.0070521559    94.212082    8444.2432 
  188100    1585.3482   0.33172622    10.462279  0.018963208         0.05    7.1059483 0.0069379784    94.492696    8443.2825 
  188200    1586.0217   0.33064113    10.466929  0.018963208         0.05    7.2541417 0.0066920233    96.632173    8442.2206 
  188300    1586.6893   0.33086738    10.471903  0.018963208         0.05    7.1972478 0.0065201128    95.893171    8441.1931 
  188400    1587.4678   0.33112326    10.477694  0.018963208         0.05    5.2047956 0.0079742371    95.851556    8440.1676 
  188500    1588.2468    0.3301438    10.483709  0.018963208         0.05    5.2441197 0.0079093449    96.584754    8439.1079 
  188600    1589.1185   0.33068771    10.489561  0.018963208         0.05    5.2797658  0.008756068    95.886945    8438.0807 
  188700    1589.9912   0.33268171    10.496034  0.018963208         0.05    5.3492003  0.009192179    95.351421    8437.0786 
  188800    1590.8836   0.33139225    10.502743  0.018963208         0.05    5.4120213 0.0085288583    96.964519    8436.0016 
  188900    1591.7614   0.33126058    10.509454  0.018963208         0.05    5.4988747 0.0086928635    97.241072     8434.912 
  189000    1592.6232   0.32990186    10.515349  0.018963208         0.05    5.8029607 0.0082990643    95.855323    8433.8862 
  189100    1593.4483   0.33159379    10.520946  0.018963208         0.05    5.8790384 0.0081954855    94.912588    8432.9049 
  189200    1594.2647   0.33105547    10.526755  0.018963208         0.05    5.9428245 0.0081097615    95.800939    8431.8816 
  189300    1595.0724   0.33193398    10.532367  0.018963208         0.05    6.0082853 0.0080289731    94.662368     8430.912 
  189400    1595.8709   0.33171548     10.53801  0.018963208         0.05    6.0881304 0.0079308218    95.062912    8429.9234 
  189500    1596.6596   0.33167707    10.543291  0.018963208         0.05    6.1910496 0.0078072184    96.356478    8428.8742 
  189600    1597.4759   0.33089364    10.549309  0.018963208         0.05    5.9113706 0.0083800063    96.824641    8427.8036 
  189700    1598.3147   0.33094896    10.555031  0.018963208         0.05     5.918598  0.008424835    96.600347    8426.7433 
  189800    1599.1497   0.33086469    10.560563  0.018963208         0.05    5.9947457  0.008323502    97.714249    8425.6327 
  189900    1599.9683   0.33171386    10.566213  0.018963208         0.05    6.1746714 0.0080856029    95.372625    8424.6293 
  190000    1600.7705   0.33223611    10.571736  0.018963208         0.05    6.2430042 0.0079991604    94.202412    8423.6814 
  190100     1601.566    0.3317874    10.576685  0.018963208         0.05    6.3197964 0.0079009323    96.025312    8422.6476 
  190200    1602.3367   0.33150681    10.582273  0.018963208         0.05    6.4710002  0.007718108    96.172061    8421.6069 
  190300     1603.128    0.3308323    10.588523  0.018963208         0.05    5.9293085 0.0082360306    98.895348    8420.4445 
  190400    1603.9371   0.33231861    10.594157  0.018963208         0.05      5.92827 0.0081265808    96.269561    8419.3994 
  190500    1604.7437   0.33151126     10.59985  0.018963208         0.05     6.009057 0.0080009286    95.787352    8418.3766 
  190600    1605.5433   0.33270457    10.605622  0.018963208         0.05    6.0367512 0.0079558769     95.57955    8417.3634 
  190700    1606.3259   0.33151575    10.611379  0.018963208         0.05    6.0457379 0.0077417084    97.231807    8416.2747 
  190800    1607.1005   0.33141097     10.61669  0.018963208         0.05    5.8280517 0.0084962615    97.032847    8415.1951 
  190900    1607.9489   0.33063911    10.621913  0.018963208         0.05    5.4869751 0.0087640195    96.762877    8414.1277 
  191000      1608.78   0.33091854    10.627351  0.018963208         0.05    5.9433121 0.0081913349    96.450426    8413.0744 
  191100    1609.5943   0.33185895    10.632394  0.018963208         0.05    6.0260348 0.0080855189    94.492334    8412.1122 
  191200    1610.3976   0.33183348    10.637731  0.018963208         0.05    6.1414828  0.007934077    95.756452    8411.0907 
  191300    1611.1899    0.3326814    10.643019  0.018963208         0.05    5.9980162  0.007931425    96.343862    8410.0423 
  191400    1611.9782   0.33191014    10.647481  0.018963208         0.05    6.0815897 0.0078053025    95.619665    8409.0272 
  191500    1612.7574    0.3312638     10.65287  0.018963208         0.05    6.1210398 0.0077493194    95.364971    8408.0238 
  191600    1613.5284   0.33153466    10.657013  0.018963208         0.05    6.1936264 0.0076672297     94.97171    8407.0386 
  191700    1614.2911   0.33205689    10.661523  0.018963208         0.05    6.6316631 0.0072194266    95.894947    8406.0107 
  191800    1615.0215   0.33099652    10.665811  0.018963208         0.05    6.8570222 0.0072186419    96.362875    8404.9614 
  191900    1615.8205   0.33168963    10.669892  0.018963208         0.05    5.3317389 0.0085838468    97.778851    8403.8488 
  192000    1616.6857    0.3304106    10.675571  0.018963208         0.05    5.5245585 0.0086169534    95.024339    8402.8611 
  192100    1617.5529   0.32994242    10.680569  0.018963208         0.05    5.4947548 0.0088092726    95.478616    8401.8522 
  192200    1618.3463   0.33070415     10.68598  0.018963208         0.05    5.3833108 0.0085917423    96.675338    8400.7888 
  192300    1619.2209   0.33170629    10.691499  0.018963208         0.05    5.4550953 0.0087368456    96.318684    8399.7416 
  192400    1620.0651   0.33152982    10.696127  0.018963208         0.05    5.5415335 0.0083195572    96.208239    8398.6993 
  192500    1620.9158   0.33214765    10.700744  0.018963208         0.05    5.6025341 0.0085026516    97.867283    8397.5831 
  192600    1621.7835   0.33122962    10.706402  0.018963208         0.05     5.695869 0.0087662706    96.035184    8396.5488 
  192700    1622.6522   0.33078142    10.711852  0.018963208         0.05    5.8314221  0.008540828    95.297628    8395.5482 
  192800    1623.5114   0.33246344    10.717318  0.018963208         0.05    5.8285191 0.0085281628    96.569654    8394.4897 
  192900    1624.3488   0.33149842    10.722531  0.018963208         0.05    6.0270227 0.0082818412    95.621321    8393.4742 
  193000    1625.1729   0.33097845    10.728337  0.018963208         0.05     6.105195 0.0081766715    95.433321    8392.4673 
  193100    1625.9856   0.33155724    10.733409  0.018963208         0.05    6.1975758 0.0080539227    95.174283    8391.4722 
  193200    1626.7857   0.33155328    10.737712  0.018963208         0.05    6.2806424 0.0079432079     95.47979     8390.463 
  193300    1627.5673   0.33272008     10.74266  0.018963208         0.05    6.4568169 0.0077035872    94.867034    8389.4821 
  193400    1628.3343   0.33061208    10.748124  0.018963208         0.05    6.5204327 0.0076240108    95.199838    8388.4857 
  193500    1629.0936   0.33199239     10.75287  0.018963208         0.05     6.583691 0.0075492391    94.965495       8387.5 
  193600    1629.8441   0.33215425    10.757712  0.018963208         0.05     6.681817 0.0074250981    94.773445    8386.5232 
  193700    1630.6016   0.33114349     10.76274  0.018963208         0.05    5.8058545 0.0086003287    96.692142    8385.4591 
  193800    1631.4538    0.3320477    10.768049  0.018963208         0.05    5.8899493 0.0084777028    95.491115    8384.4492 
  193900    1632.2936   0.33074872    10.773034  0.018963208         0.05    5.9867313  0.008340664    95.664111    8383.4313 
  194000    1633.1266   0.33123043    10.778673  0.018963208         0.05    5.8999688 0.0084491264    96.844515    8382.3605 
  194100    1633.9746   0.33199374    10.783965  0.018963208         0.05    5.0405042 0.0087584047    96.558739    8381.3024 
  194200    1634.8478   0.33074538     10.78929  0.018963208         0.05    5.2331719 0.0086710431    96.708618    8380.2377 
  194300    1635.7048     0.331534     10.79433  0.018963208         0.05    5.2220802 0.0087849294    95.271587    8379.2377 
  194400    1636.5823   0.33121392    10.799477  0.018963208         0.05    5.3406121 0.0087251724    96.643662    8378.1759 
  194500     1637.447   0.33161301    10.804114  0.018963208         0.05    5.3963009 0.0088841622    97.261794    8377.0869 
  194600    1638.3183   0.33161824    10.809458  0.018963208         0.05    5.4834324 0.0087541278     96.12344    8376.0483 
  194700    1639.1757   0.33122142    10.814236  0.018963208         0.05    5.6458573 0.0083431584     96.49445    8374.9932 
  194800    1640.0151   0.33068524     10.81944  0.018963208         0.05     5.771253 0.0085044222    97.191364    8373.9074 
  194900    1640.8717   0.33183084    10.824197  0.018963208         0.05    5.2799363 0.0086457905    95.134433    8372.9135 
  195000    1641.7306   0.33173565    10.829324  0.018963208         0.05    5.3780826  0.008512206    93.773711    8371.9826 
  195100    1642.5774   0.33123073     10.83519  0.018963208         0.05    5.4500054 0.0084219886       95.776    8370.9595 
  195200    1643.4147   0.33113192    10.840335  0.018963208         0.05     5.504105 0.0083276635    95.801311    8369.9353 
  195300    1644.2441   0.33046824    10.844865  0.018963208         0.05    5.5525285 0.0082443646    95.192859    8368.9385 
  195400     1645.064   0.33167495    10.850008  0.018963208         0.05    5.6345152 0.0081434546    94.928892    8367.9538 
  195500    1645.8718   0.33155383    10.854624  0.018963208         0.05    5.8083797 0.0081324289    95.421032    8366.9465 
  195600     1646.739   0.33083875    10.860214  0.018963208         0.05    5.3829972  0.008546343    96.935856     8365.872 
  195700    1647.6153   0.33090864    10.865847  0.018963208         0.05     5.468593 0.0088411374    95.828211    8364.8464 
  195800    1648.4893   0.33039309    10.871397  0.018963208         0.05    5.6894532 0.0084948122    95.926309    8363.8165 
  195900    1649.3483   0.33092427    10.876632  0.018963208         0.05    5.6686996  0.008549932    96.602394    8362.7566 
  196000    1650.1974   0.33104797    10.881515  0.018963208         0.05    5.7573084 0.0084240415    94.528857    8361.7898 
  196100     1651.025   0.33064188    10.887156  0.018963208         0.05    5.7265698 0.0082342918    95.958877    8360.7584 
  196200    1651.8472   0.33015306    10.892219  0.018963208         0.05    5.7713852 0.0081706779    96.466065    8359.7044 
  196300    1652.6596   0.33028454    10.897735  0.018963208         0.05     5.862306 0.0080608561    95.454823    8358.6955 
  196400    1653.4735    0.3302627    10.903349  0.018963208         0.05    5.3051861 0.0082164984    95.772238    8357.6723 
  196500    1654.2929   0.33047466     10.90918  0.018963208         0.05    5.3871285 0.0081649484    95.716856    8356.6516 
  196600    1655.1084   0.33073701    10.914408  0.018963208         0.05    5.4686724 0.0081478606    97.472544    8355.5539 
  196700    1655.9179   0.33043256     10.91997  0.018963208         0.05    5.2055883 0.0078590775    94.173837    8354.6031 
  196800    1656.7415   0.33075699    10.925145  0.018963208         0.05    5.4802103  0.008165111    97.813101    8353.4909 
  196900    1657.5659   0.33079117    10.930827  0.018963208         0.05    5.8212309 0.0083251959    98.269168    8352.3595 
  197000    1658.3747   0.33132816    10.936123  0.018963208         0.05      5.94757 0.0079969095     94.41355    8351.3975 
  197100    1659.1572   0.32984737    10.941385  0.018963208         0.05    6.0508193 0.0073100256    95.740605    8350.3757 
  197200    1659.8891   0.32931538    10.946091  0.018963208         0.05    6.1240113 0.0073095689    95.553246    8349.3622 
  197300    1660.6251   0.32968969    10.951246  0.018963208         0.05    6.1943333 0.0078490586    97.802563    8348.2507 
  197400    1661.4057   0.32955551     10.95646  0.018963208         0.05    6.2847904 0.0077461644    94.165063    8347.2999 
  197500     1662.177   0.33117923    10.961669  0.018963208         0.05    6.3558903 0.0076667225    96.467729     8346.246 
  197600    1662.9363    0.3311087    10.967113  0.018963208         0.05    6.5800756 0.0075684087    95.903761    8345.2168 
  197700     1663.689    0.3318045     10.97267  0.018963208         0.05    6.7515579 0.0073788147    96.653951    8344.1549 
  197800    1664.4656   0.33185129    10.977918  0.018963208         0.05    6.1088202 0.0080513264    96.252307    8343.1104 
  197900    1665.2666   0.33141131    10.982769  0.018963208         0.05    6.1419147 0.0079559356    95.488637    8342.0996 
  198000    1666.0602   0.33174042    10.987195  0.018963208         0.05    6.3388657 0.0078197894    94.893133    8341.1154 
  198100    1666.8497   0.33198255    10.991993  0.018963208         0.05    6.3091886  0.007847831    96.250209     8340.071 
  198200    1667.6301   0.33081391    10.997122  0.018963208         0.05    6.3919778 0.0077368122    94.447693    8339.1068 
  198300    1668.4054   0.32957484    11.001896  0.018963208         0.05    6.3785152  0.007733604    97.115009    8338.0249 
  198400    1669.1732    0.3316947    11.006438  0.018963208         0.05    6.4567386  0.007644925    95.399915    8337.0179 
  198500    1669.9373   0.32995602    11.010908  0.018963208         0.05    6.5458205 0.0075400004    96.384798    8335.9676 
  198600    1670.7452   0.33135259    11.016102  0.018963208         0.05    5.6940387 0.0082571622    96.717582    8334.9029 
  198700    1671.5655   0.33097481    11.021983  0.018963208         0.05    5.7876574 0.0081011574    95.229753    8333.9034 
  198800    1672.3814   0.33219303    11.027415  0.018963208         0.05    5.8196346 0.0081524048    97.017024    8332.8259 
  198900    1673.2075   0.33061284    11.033199  0.018963208         0.05    5.6305695 0.0082793725    97.164818    8331.7421 
  199000    1674.0474   0.33058677    11.038698  0.018963208         0.05    5.6651022 0.0082445596    96.066374    8330.7057 
  199100    1674.8917   0.33052054    11.044569  0.018963208         0.05    5.5451734   0.00843416    96.260016    8329.6609 
  199200    1675.7577   0.33065412    11.050371  0.018963208         0.05    5.4429533 0.0088751781    98.572773    8328.5181 
  199300     1676.621   0.33143472     11.05585  0.018963208         0.05    5.4679709 0.0088698701    96.401235    8327.4673 
  199400    1677.5022   0.33116707    11.061676  0.018963208         0.05    5.5427538 0.0087891157    96.732282    8326.4022 
  199500    1678.3725    0.3306263    11.066662  0.018963208         0.05    5.7836324 0.0085604586    94.367327    8325.4411 
  199600     1679.147   0.33070712    11.071472  0.018963208         0.05    5.4690955 0.0077306481    96.569743     8324.383 
  199700    1679.9258   0.33170165    11.076578  0.018963208         0.05    5.7191956 0.0078216497    97.569908    8323.2823 
  199800    1680.6954   0.33025524    11.081925  0.018963208         0.05    5.5012469 0.0078937632    97.456101    8322.1866 
  199900    1681.4855   0.33034373    11.087779  0.018963208         0.05    5.5760949 0.0078652116    97.263779     8321.099 
  200000    1682.2757   0.33161678    11.092943  0.018963208         0.05    5.7119035 0.0082233612    94.464838    8320.1334 
  200100    1683.0934   0.33005184    11.098586  0.018963208         0.05    5.7250062 0.0081216276    95.536531    8319.1201 
  200200     1683.897   0.33004989    11.104418  0.018963208         0.05    5.7151999 0.0078454494    95.701852    8318.0997 
  200300    1684.6559   0.33091908     11.10948  0.018963208         0.05    6.7356562  0.007285414    98.487803    8316.9612 
  200400    1685.3933    0.3294592    11.114569  0.018963208         0.05    5.8651553 0.0083012016    98.041234    8315.8412 
  200500      1686.21   0.33146356    11.120232  0.018963208         0.05     5.909903  0.008269208    95.849168    8314.8144 
  200600    1687.0457   0.33150167    11.126368  0.018963208         0.05    5.8619817 0.0084983292    97.696974    8313.7089 
  200700    1687.8955   0.33036552    11.131815  0.018963208         0.05    5.8928216 0.0084750213    96.336426    8312.6611 
  200800    1688.7376   0.33235353    11.137573  0.018963208         0.05    5.9770315 0.0083558894    93.853364    8311.7226 
  200900    1689.5832   0.33126784    11.143423  0.018963208         0.05    5.7580333 0.0085851484    96.033337    8310.6878 
  201000    1690.4218   0.33126861    11.149102  0.018963208         0.05    6.1048929 0.0081412364    95.604212    8309.6715 
  201100    1691.2881   0.33110902    11.154903  0.018963208         0.05    5.5346363 0.0087145779    95.602033    8308.6553 
  201200      1692.16   0.33212577    11.161003  0.018963208         0.05    5.6006804 0.0085909794    94.999136    8307.6654 
  201300    1693.0126   0.33161003    11.167261  0.018963208         0.05    5.2205018 0.0083142762    96.164762    8306.6249 
  201400     1693.847    0.3316736    11.173246  0.018963208         0.05     5.275053 0.0075745832      97.1634     8305.542 
  201500    1694.6616   0.33026657    11.178779  0.018963208         0.05    5.1685978 0.0087433982    96.560339    8304.4845 
  201600    1695.5229   0.33005707    11.184812  0.018963208         0.05    5.2723641 0.0091282807    96.604552    8303.4253 
  201700    1696.4087   0.33104426    11.190434  0.018963208         0.05    5.2237606  0.008983028    98.003367    8302.3075 
  201800    1697.3013   0.33104259     11.19645  0.018963208         0.05    5.3128691 0.0087754531    96.456193    8301.2547 
  201900    1698.1775   0.33194814      11.2019  0.018963208         0.05    5.5126276 0.0088059454    95.808751    8300.2295 
  202000    1699.0376   0.33084604    11.207501  0.018963208         0.05     5.492119 0.0082108463    95.569227    8299.2146 
  202100    1699.8569   0.33096198    11.212711  0.018963208         0.05    5.5812782 0.0081242105    95.696699    8298.1942 
  202200    1700.7088    0.3309007    11.217973  0.018963208         0.05     5.628818 0.0085725605    96.316384    8297.1473 
  202300    1701.5612   0.33200869    11.222682  0.018963208         0.05    5.5752204 0.0086615033    97.344164    8296.0571 
  202400    1702.4132   0.33250958    11.228382  0.018963208         0.05    5.9238566 0.0083706868    95.002407    8295.0668 
  202500    1703.2944   0.33126828    11.234626  0.018963208         0.05    5.1231785 0.0092665739    95.976092    8294.0344 
  202600    1704.1572   0.33034021    11.240118  0.018963208         0.05    5.4221656 0.0083693288    96.037405    8292.9993 
  202700    1705.0088   0.33033745    11.245234  0.018963208         0.05    5.3096404 0.0084999768    96.223711    8291.9563 
  202800    1705.8555   0.33150354    11.250559  0.018963208         0.05    5.4313586 0.0084252391    95.624591    8290.9389 
  202900    1706.6942   0.33201729    11.255482  0.018963208         0.05    5.5045173 0.0083571768    95.295463    8289.9357 
  203000     1707.528   0.33175955    11.260311  0.018963208         0.05    5.4498996 0.0082398364    95.636475    8288.9177 
  203100    1708.4305   0.33151244    11.266291  0.018963208         0.05    5.0610454 0.0095060391    96.509726    8287.8626 
  203200    1709.3571   0.33290235    11.272184  0.018963208         0.05    5.1539881  0.008949946    96.018695    8286.8283 
  203300    1710.2365    0.3319454    11.278044  0.018963208         0.05    5.2683197 0.0086871528    95.399915    8285.8204 
  203400    1711.0998   0.33153323    11.283197  0.018963208         0.05    4.7350862 0.0085789192    96.311651    8284.7737 
  203500    1711.9533   0.33144342     11.28882  0.018963208         0.05    4.7881672 0.0085242918    95.680413    8283.7537 
  203600    1712.8586   0.33185259    11.294037  0.018963208         0.05    4.6823867 0.0092187765     95.93548    8282.7229 
  203700    1713.7734   0.33167757    11.299693  0.018963208         0.05    4.7738637 0.0090798815    95.173851    8281.7246 
  203800    1714.6664   0.33172161    11.305342  0.018963208         0.05     4.863163 0.0088372126    96.650387    8280.6636 
  203900    1715.5668   0.33185413    11.311062  0.018963208         0.05     4.963591 0.0090096523    99.248473    8279.4969 
  204000    1716.4638   0.33166971    11.315945  0.018963208         0.05    5.3717083 0.0088379132     95.45819    8278.4865 
  204100    1717.3451   0.33232216    11.320729  0.018963208         0.05    5.4265745 0.0087772276    95.698926    8277.4657 
  204200    1718.1616   0.33021627    11.326001  0.018963208         0.05    5.5622854 0.0075069154    96.946275    8276.3925 
  204300    1718.9288   0.33122153    11.330642  0.018963208         0.05    5.7722274 0.0077427089     98.07952    8275.2729 
  204400    1719.7057   0.33005818    11.335474  0.018963208         0.05    5.6394805 0.0078028611    99.809842    8274.0846 
  204500    1720.4887   0.33058853     11.34009  0.018963208         0.05    5.8985774 0.0078614891    99.284066    8272.9172 
  204600     1721.277   0.33050458    11.344435  0.018963208         0.05    5.7971125 0.0077432491    97.730323    8271.8121 
  204700    1722.0607   0.33118622    11.348193  0.018963208         0.05    5.8166283 0.0080078587    96.664955     8270.751 
  204800    1722.8804   0.33213363    11.352975  0.018963208         0.05    5.9112517 0.0082183839    96.177442    8269.7102 
  204900    1723.7018    0.3308207    11.358551  0.018963208         0.05    6.0136145 0.0083030056    96.036371    8268.6754 
  205000    1724.5244   0.33195843    11.362701  0.018963208         0.05     6.095528 0.0081549456    94.220781    8267.7184 
  205100    1725.3387    0.3296426    11.367744  0.018963208         0.05    6.1725458 0.0080885434    95.546041    8266.7042 
  205200    1726.1429    0.3310038    11.372604  0.018963208         0.05    6.2529672 0.0079859469     94.50464    8265.7346 
  205300    1726.9321   0.33104782    11.377536  0.018963208         0.05    6.3563465 0.0078631681    95.022617    8264.7427 
  205400    1727.7199   0.33117562    11.382052  0.018963208         0.05    6.1958347 0.0079845444    97.706828    8263.6388 
  205500    1728.5173   0.33156849    11.386949  0.018963208         0.05    6.2174825 0.0079546362    96.858582    8262.5697 
  205600    1729.3015   0.33000844     11.39211  0.018963208         0.05    6.5646798 0.0075494211    95.963861    8261.5378 
  205700    1730.0624   0.33028277    11.397108  0.018963208         0.05    6.5678682 0.0076051521    96.014167    8260.5038 
  205800    1730.8103   0.33068866    11.401327  0.018963208         0.05    6.7081184 0.0074475739    95.268471    8259.5012 
  205900    1731.5573   0.33117455     11.40599  0.018963208         0.05     6.719649 0.0074334015    96.123264    8258.4626 
  206000     1732.326    0.3319755     11.41119  0.018963208         0.05    6.1428095 0.0080128531    95.561541    8257.4475 
  206100    1733.1228   0.33084551    11.416227  0.018963208         0.05    6.2224873 0.0079133615    96.190941    8256.4061 
  206200    1733.9098   0.32935976    11.421301  0.018963208         0.05    6.3011865 0.0078174515    94.700648    8255.4276 
  206300    1734.6861   0.33162381    11.426064  0.018963208         0.05    6.3994595 0.0076874114    95.611251    8254.4104 
  206400    1735.4495   0.33043965    11.431031  0.018963208         0.05    6.4835457 0.0075773578    95.747752    8253.3874 
  206500     1736.217   0.33015009    11.436419  0.018963208         0.05    6.3420753 0.0076893795    96.916414     8252.316 
  206600    1736.9813   0.33124684     11.44091  0.018963208         0.05    6.5230258 0.0075216662     95.93412    8251.2852 
  206700    1737.7447   0.33036531    11.445489  0.018963208         0.05    6.4953741  0.007672897     98.40949    8250.1537 
  206800     1738.508   0.33077453    11.450592  0.018963208         0.05    6.5707429  0.007585732    95.324723    8249.1485 
  206900    1739.2626   0.33049512    11.455479  0.018963208         0.05    6.6462126 0.0075001218    95.492007    8248.1362 
  207000    1740.0087   0.33160262    11.460613  0.018963208         0.05     4.843232  0.007808192    95.390802    8247.1282 
  207100    1740.8035   0.33167774    11.465769  0.018963208         0.05    4.9325258 0.0078881286    94.541386    8246.1561 
  207200    1741.5943   0.33209979    11.470838  0.018963208         0.05    5.0265707 0.0078863804    98.030556    8245.0399 
  207300    1742.3747   0.33264373    11.476471  0.018963208         0.05    5.4429282 0.0076474781    95.951787    8244.0084 
  207400    1743.1339   0.33187606    11.481301  0.018963208         0.05    5.8075825  0.007266313    96.725656    8242.9449 
  207500    1743.9906   0.33171102    11.487194  0.018963208         0.05    5.2017364 0.0090044498    98.440024    8241.8127 
  207600    1744.8893   0.33239963    11.492608  0.018963208         0.05    5.5042722 0.0089256977    97.768914    8240.7072 
  207700    1745.7868   0.33250418    11.498972  0.018963208         0.05    5.3918203 0.0089040718    98.519727    8239.5721 
  207800    1746.6803   0.33166456    11.504863  0.018963208         0.05    5.5904672 0.0086141546    96.783687    8238.5065 
  207900     1747.548   0.33142243    11.509886  0.018963208         0.05    5.6953074 0.0086734081    98.411938    8237.3758 
  208000    1748.3815   0.33160612    11.515588  0.018963208         0.05    6.0780964 0.0082251722    95.744517    8236.3531 
  208100    1749.2182   0.33237424    11.521675  0.018963208         0.05    5.2435871 0.0086387871    94.296042    8235.3913 
  208200    1750.0635    0.3317377    11.527202  0.018963208         0.05    5.2632268 0.0081773284    96.402543    8234.3413 
  208300    1750.8785   0.33305365    11.532136  0.018963208         0.05    5.3447196 0.0080993259    94.774152    8233.3591 
  208400    1751.6856    0.3327882    11.537979  0.018963208         0.05    5.4389445 0.0081387393    95.537815    8232.3448 
  208500    1752.5254   0.33201004    11.542621  0.018963208         0.05    5.4761944 0.0088704255    96.580194    8231.2875 
  208600    1753.4016   0.33200325    11.547943  0.018963208         0.05     5.595538 0.0086019382    95.132361    8230.2901 
  208700    1754.2636   0.33179917    11.553672  0.018963208         0.05    5.0205581 0.0089091646    97.624117    8229.1908 
  208800     1755.163   0.33186768    11.558604  0.018963208         0.05    5.1931136 0.0087003118    96.822852    8228.1238 
  208900    1756.0483   0.33169111     11.56357  0.018963208         0.05    5.3391009 0.0087613229     96.84058    8227.0561 
  209000    1756.9251   0.33182465    11.569541  0.018963208         0.05    4.9871967  0.008744254    95.483724     8226.044 
  209100    1757.7724    0.3311213    11.574296  0.018963208         0.05    5.1022872 0.0081444957    96.015266    8225.0099 
  209200     1758.695   0.33258839    11.580215  0.018963208         0.05    5.3668838   0.00914455    96.833627    8223.9425 
  209300    1759.6199   0.33147964    11.585883  0.018963208         0.05    4.7857875 0.0090773986    96.528827    8222.8874 
  209400    1760.5043    0.3303275    11.592199  0.018963208         0.05    5.0302023 0.0086710376    97.137658    8221.8079 
  209500    1761.3771   0.33177412    11.597673  0.018963208         0.05    5.2667277 0.0087038471     96.13342     8220.769 
  209600    1762.2422   0.33012648    11.603393  0.018963208         0.05    5.3547126 0.0085858927    94.936198    8219.7796 
  209700    1763.0661   0.33155122    11.607649  0.018963208         0.05     5.438934 0.0082441748    97.134148    8218.7002 
  209800    1763.8977   0.33249846    11.612221  0.018963208         0.05    5.5111511 0.0083797495    98.140037    8217.5812 
  209900    1764.6888   0.33192225    11.616605  0.018963208         0.05    5.5891453 0.0074234151    97.268899    8216.4966 
  210000    1765.4705   0.33106721     11.62209  0.018963208         0.05     5.516663 0.0081927975    97.332124    8215.4096 
  210100    1766.2937   0.33282652    11.628061  0.018963208         0.05     5.606276 0.0082513624    96.749976    8214.3459 
  210200    1767.1145   0.33190211    11.633224  0.018963208         0.05    5.6866103 0.0081527491     95.70825    8213.3244 
  210300    1767.9253   0.33135198    11.637795  0.018963208         0.05    5.7790075 0.0080441733    95.956858    8212.2928 
  210400    1768.7262   0.33153852    11.642969  0.018963208         0.05    5.8696317 0.0079613937    96.614165    8211.2346 
  210500    1769.5204   0.33172203    11.647475  0.018963208         0.05    4.9636199 0.0085465584    96.456459    8210.1827 
  210600     1770.372   0.33050876    11.653467  0.018963208         0.05     5.449941 0.0082484073    96.305989    8209.1369 
  210700    1771.2016   0.33287319    11.658973  0.018963208         0.05    5.8430461 0.0083598073    97.500096    8208.0435 
  210800    1772.0773   0.33333851     11.66443  0.018963208         0.05    4.9659283 0.0087992555    95.946563    8207.0123 
  210900    1772.9719   0.33175146    11.669822  0.018963208         0.05    5.6838161 0.0086355033    97.315638    8205.9262 
  211000    1773.8784   0.33143599    11.675038  0.018963208         0.05    5.3544175 0.0091884567    97.543746    8204.8313 
  211100    1774.7909   0.33235461    11.681459  0.018963208         0.05    5.4422832 0.0090427933    96.228987    8203.7887 
  211200    1775.6878   0.33121305    11.687194  0.018963208         0.05    5.5374578 0.0088905104    95.057396    8202.7939 
  211300    1776.5667   0.33082834    11.692865  0.018963208         0.05     5.617972 0.0087617036    96.873974    8201.7255 
  211400    1777.4242   0.33145834    11.698733  0.018963208         0.05    5.8963467 0.0084638706    96.494916    8200.6723 
  211500     1778.262   0.33203042    11.704486  0.018963208         0.05    5.6106768 0.0086036622    97.101811    8199.5949 
  211600    1779.1113    0.3322773    11.710671  0.018963208         0.05    5.5053806 0.0086449193      96.5868     8198.538 
  211700    1779.9662   0.33228552    11.716864  0.018963208         0.05    5.8805343 0.0083830462    96.809555    8197.4723 
  211800      1780.83    0.3313061    11.723149  0.018963208         0.05    5.5805435 0.0086918234    97.088123    8196.3955 
  211900    1781.6933   0.33039179    11.728723  0.018963208         0.05    5.4498635  0.008543017    96.123638    8195.3573 
  212000    1782.5506    0.3316602    11.733989  0.018963208         0.05    5.1335054 0.0089589522    95.843627    8194.3303 
  212100    1783.4444   0.33127195    11.739634  0.018963208         0.05    5.2199956 0.0088700872    95.901283     8193.301 
  212200    1784.3258   0.33178335    11.745317  0.018963208         0.05    5.3084575 0.0087842966    96.863459    8192.2332 
  212300    1785.1893   0.33170545    11.750237  0.018963208         0.05    5.2090578 0.0086050371    96.876972     8191.165 
  212400    1786.0329   0.33219939     11.75501  0.018963208         0.05    4.9361399 0.0088051788     96.56025    8190.1093 
  212500     1786.905   0.33164469    11.760704  0.018963208         0.05    5.0656408 0.0086452933    96.995284    8189.0364 
  212600     1787.748   0.33045925    11.766314  0.018963208         0.05    5.0062415 0.0086400648     96.08048    8187.9999 
  212700    1788.6033   0.33199322     11.77159  0.018963208         0.05    4.8823872 0.0086403673    98.267741    8186.8777 
  212800    1789.4883   0.33188926    11.777192  0.018963208         0.05    4.8553988  0.009049424    97.645185    8185.7795 
  212900    1790.3804   0.33156931    11.782218  0.018963208         0.05    4.8351711 0.0088422441    96.345986    8184.7325 
  213000    1791.2634   0.33136091    11.787326  0.018963208         0.05    5.0864991 0.0086924333    96.545981    8183.6776 
  213100    1792.1265   0.33118183    11.791956  0.018963208         0.05    5.1553704  0.008600275    95.674629    8182.6575 
  213200    1792.9808   0.33118324    11.796604  0.018963208         0.05     5.263148 0.0085048665    95.780396    8181.6331 
  213300    1793.8152   0.33209418    11.800743  0.018963208         0.05    5.2680326  0.007627875    95.732258    8180.6106 
  213400    1794.6332   0.33079926    11.805375  0.018963208         0.05    5.3411011 0.0085352187    94.338121    8179.6451 
  213500    1795.4858   0.33106774     11.80949  0.018963208         0.05    5.1177191 0.0083446998    92.261303    8178.7673 
  213600    1796.3263   0.33027296    11.813993  0.018963208         0.05    5.4015074 0.0081443266    93.111079    8177.8529 
  213700    1797.1536    0.3302047    11.818635  0.018963208         0.05    5.2284816 0.0082306063    93.756733    8176.9112 
  213800    1797.9721    0.3316673    11.823297  0.018963208         0.05    4.6959516 0.0090835178    94.235874    8175.9494 
  213900    1798.8961   0.33035989    11.828577  0.018963208         0.05    4.7172631 0.0092975205    93.079795    8175.0359 
  214000    1799.8155   0.33086118    11.832312  0.018963208         0.05    4.8504822 0.0093293651     92.01843    8174.1678 
  214100    1800.7202    0.3307882    11.836511  0.018963208         0.05    5.0463298 0.0089056382    93.292626     8173.245 
  214200    1801.6064   0.33085142     11.84113  0.018963208         0.05    4.9910526 0.0088241828    92.665015    8172.3488 
  214300    1802.4891   0.33093413    11.845069  0.018963208         0.05    5.2598754 0.0087838759    92.683198    8171.4515 
  214400    1803.3417   0.33085294    11.850309  0.018963208         0.05    5.3451354  0.008553839    94.606234    8170.4738 
  214500    1804.1912   0.33020374     11.85491  0.018963208         0.05    5.4274741  0.008410734    96.925709    8169.4033 
  214600    1805.0379   0.33033148    11.859213  0.018963208         0.05    5.4865149 0.0084464628    97.028694    8168.3289 
  214700    1805.8853    0.3311131    11.863664  0.018963208         0.05    5.5648123 0.0087738851    95.956946    8167.2966 
  214800    1806.7716   0.33001789    11.868791  0.018963208         0.05    5.4322298 0.0091457354    95.959712    8166.2641 
  214900    1807.6767    0.3318865    11.874515  0.018963208         0.05    5.5227473 0.0089002401    95.836378    8165.2366 
  215000     1808.557   0.33136409    11.879604  0.018963208         0.05    5.6816087 0.0087538822    97.017203    8164.1627 
  215100    1809.4258   0.33159015    11.884525  0.018963208         0.05    5.8329822 0.0084971068    94.648312     8163.183 
  215200    1810.2773   0.33089195    11.889608  0.018963208         0.05    5.8088372 0.0085450608    97.422011    8162.0935 
  215300    1811.1229   0.32977032    11.894444  0.018963208         0.05    5.8420776 0.0085543957    97.641957    8160.9956 
  215400    1811.9694   0.33151766    11.899567  0.018963208         0.05    5.9758392 0.0083616785    95.603209    8159.9774 
  215500    1812.7996   0.32970622    11.905161  0.018963208         0.05    6.0924692 0.0082017078    95.770205    8158.9524 
  215600    1813.6292   0.33042208    11.910162  0.018963208         0.05    5.9358938 0.0083692068     97.05128    8157.8774 
  215700    1814.4623   0.33083151    11.915137  0.018963208         0.05    6.0053615 0.0082747129    96.109035    8156.8391 
  215800    1815.2844   0.33177274    11.920245  0.018963208         0.05    6.1281522 0.0081025352    95.912862    8155.8085 
  215900    1816.1049   0.33180088    11.925243  0.018963208         0.05    5.3910496 0.0082205939    96.856994     8154.741 
  216000    1816.9233   0.33096775    11.929968  0.018963208         0.05    5.2123439 0.0082650432    95.827291    8153.7138 
  216100    1817.7476   0.33091505    11.935659  0.018963208         0.05    5.2343818 0.0081994036    95.338243     8152.706 
  216200    1818.5629   0.33015364    11.940486  0.018963208         0.05    5.3263126 0.0080995628    96.105071    8151.6678 
  216300    1819.3681   0.33037935    11.945632  0.018963208         0.05    5.4104423 0.0079941129    90.235268    8150.8749 
  216400    1820.1841   0.33112976     11.95003  0.018963208         0.05    4.8932498 0.0091400058    81.722716    8150.4997 
  216500    1821.0921   0.33153714    11.956065  0.018963208         0.05    4.7477506 0.0090058382    81.835815    8150.1175 
  216600    1821.9806   0.33131354    11.961604  0.018963208         0.05    4.7941034 0.0094361059    96.276212    8149.0717 
  216700    1822.8992   0.32883171    11.968664  0.018963208         0.05    4.8822936 0.0088606165    96.874063    8148.0028 
  216800     1823.816   0.33056115    11.973965  0.018963208         0.05    4.9325422 0.0093512886     97.91261    8146.8943 
  216900    1824.7462   0.33185474    11.979928  0.018963208         0.05    5.0260085 0.0092474402    96.457236    8145.8416 
  217000     1825.659   0.33127163     11.98546  0.018963208         0.05    5.1759991 0.0091408331    96.223689    8144.7979 
  217100     1826.566   0.33059668    11.991414  0.018963208         0.05    5.2237595 0.0090225377    95.827488    8143.7697 
  217200    1827.4548   0.32947696    11.996762  0.018963208         0.05    5.2580524 0.0091110043    96.589513    8142.7119 
  217300    1828.3635   0.33065178    12.002219  0.018963208         0.05    5.4076652 0.0091059975    97.465228    8141.6205 
  217400    1829.2674   0.33008011    12.008106  0.018963208         0.05    5.5723823 0.0087989568    96.513723    8140.5657 
  217500    1830.1514   0.32962795    12.013895  0.018963208         0.05    5.3926219 0.0089098651    97.442517    8139.4753 
  217600    1831.0568   0.32998402    12.019118  0.018963208         0.05    5.3189452 0.0089883796    96.026169    8138.4394 
  217700    1831.9528   0.33005636    12.024821  0.018963208         0.05     4.857105 0.0092309999    95.950228    8137.4065 
  217800    1832.8794   0.32980743    12.030222  0.018963208         0.05    5.0472193  0.009296802    96.824998    8136.3397 
  217900     1833.775   0.32999165    12.035797  0.018963208         0.05    5.1216483 0.0086979757    98.030373    8135.2274 
  218000    1834.6486   0.32843925    12.041511  0.018963208         0.05    5.1793466 0.0088211839    98.111066    8134.1121 
  218100    1835.5324   0.32971936    12.047757  0.018963208         0.05     5.134712 0.0092266195    97.053279    8133.0368 
  218200     1836.407   0.33080719    12.052725  0.018963208         0.05    5.7442279 0.0085701534    95.758922    8132.0114 
  218300    1837.2543   0.33020467    12.057984  0.018963208         0.05    5.9943696   0.00821597    96.243517    8130.9672 
  218400    1838.0961   0.33048101    12.062716  0.018963208         0.05    5.8452211 0.0083331992    97.771398    8129.8649 
  218500    1838.9334   0.33031117    12.067719  0.018963208         0.05    5.3924009  0.008121704    99.436213    8128.7014 
  218600    1839.7515    0.3309088    12.072391  0.018963208         0.05    5.5103196 0.0081912579    98.130899    8127.5858 
  218700    1840.5705    0.3309603     12.07737  0.018963208         0.05    5.4439135 0.0082611101    98.624182    8126.4522 
  218800    1841.3879   0.33100875    12.081934  0.018963208         0.05    5.0499802  0.008146236    98.178975     8125.335 
  218900    1842.2335   0.33091055    12.086934  0.018963208         0.05     5.123619 0.0090661613     96.72985    8124.2724 
  219000    1843.1334   0.32966564    12.093107  0.018963208         0.05    5.3984589 0.0086522527    96.395962    8123.2226 
  219100    1843.9993   0.33002737    12.098785  0.018963208         0.05    5.2198599 0.0087240531    93.875819    8122.2721 
  219200    1844.8663   0.33071913    12.103899  0.018963208         0.05    5.3070809 0.0086030674    92.512419    8121.3774 
  219300    1845.7202   0.33142846    12.109244  0.018963208         0.05    5.4284654 0.0084474311    92.502483    8120.4829 
  219400    1846.6102   0.32995903    12.115366  0.018963208         0.05    5.3917568 0.0090859584    92.173714     8119.602 
  219500     1847.506   0.33009488    12.120888  0.018963208         0.05    5.4859646 0.0089010829    93.554466    8118.6639 
  219600    1848.3557   0.33039106    12.125764  0.018963208         0.05    5.8427893 0.0078855497    92.678079    8117.7617 
  219700    1849.1467   0.33000062    12.130275  0.018963208         0.05    5.9941319  0.007853687     93.46501     8116.827 
  219800    1849.9331   0.33033061    12.134706  0.018963208         0.05    6.0588497 0.0078509328    93.094277    8115.9074 
  219900    1850.7078   0.32934402    12.139566  0.018963208         0.05    5.6530563 0.0087768474    92.643279    8115.0061 
  220000    1851.5794   0.32953408    12.145339  0.018963208         0.05    5.7817392 0.0086240149    92.501381    8114.1105 
  220100    1852.4311   0.33061174    12.150709  0.018963208         0.05    5.7701414 0.0084830002    95.767646    8113.0842 
  220200    1853.2935   0.33079113    12.156641  0.018963208         0.05    5.7223257 0.0086798297     94.95638    8112.0894 
  220300     1854.152    0.3307133    12.162764  0.018963208         0.05    5.8099609 0.0085142934    96.096748    8111.0503 
  220400    1854.9953   0.33079218    12.167714  0.018963208         0.05    5.9727081 0.0081277397    95.181086    8110.0466 
  220500    1855.8428   0.33202288    12.172684  0.018963208         0.05     5.873106 0.0084545885    95.669698     8109.024 
  220600    1856.6818   0.33095242    12.177646  0.018963208         0.05    5.9011488  0.008169721    95.294986    8108.0158 
  220700    1857.5044   0.33147718    12.182347  0.018963208         0.05     5.990432 0.0081854591    96.618171    8106.9568 
  220800    1858.3138   0.33008124    12.187274  0.018963208         0.05    6.1309931 0.0080542861    96.209629    8105.9134 
  220900    1859.1138   0.33057843    12.192855  0.018963208         0.05    6.2822585 0.0079075773    95.525412    8104.8962 
  221000    1859.8946   0.33006661    12.198481  0.018963208         0.05     6.424142 0.0077722691    95.819301    8103.8677 
  221100    1860.6676    0.3311226    12.203836  0.018963208         0.05    6.5022216 0.0076791949    95.439618    8102.8538 
  221200     1861.431   0.33130646    12.208579  0.018963208         0.05    6.6197011 0.0075450131      95.4163    8101.8408 
  221300    1862.1903   0.33107155    12.213328  0.018963208         0.05    6.5776138 0.0075922364     97.32851    8100.7553 
  221400    1862.9475   0.33077379    12.217531  0.018963208         0.05     6.618794 0.0075384252    95.565656    8099.7365 
  221500    1863.6976   0.32903716    12.222052  0.018963208         0.05    6.6934904 0.0074545625    95.515819    8098.7196 
  221600    1864.4394   0.33130644    12.226498  0.018963208         0.05    6.7676676 0.0073731871    94.407323    8097.7458 
  221700    1865.1731   0.33211039    12.231181  0.018963208         0.05    6.8415595 0.0072940276    95.648099    8096.7237 
  221800    1865.8991   0.33072977    12.235947  0.018963208         0.05    6.9155318 0.0072162637    96.171973    8095.6816 
  221900    1866.6177   0.33051205    12.240593  0.018963208         0.05    6.9811264 0.0071510213    95.106044    8094.6804 
  222000    1867.3292   0.33174085    12.245679  0.018963208         0.05    7.0750303 0.0070569991    94.253006    8093.7125 
  222100    1868.0345   0.33151287      12.2504  0.018963208         0.05    7.1598372 0.0069609142     96.70806    8092.6502 
  222200    1868.7156   0.33273473    12.254701  0.018963208         0.05    7.2930086 0.0067680331    97.555452    8091.5564 
  222300    1869.3945   0.33120938    12.259775  0.018963208         0.05    7.2531777 0.0066903291    95.625987    8090.5351 
  222400    1870.0889   0.33080663    12.264534  0.018963208         0.05    6.5874307 0.0071384045    97.343576    8089.4493 
  222500    1870.7792   0.33060217    12.270133  0.018963208         0.05    6.5771719 0.0066734761    96.134632    8088.4086 
  222600    1871.4531   0.33061493    12.274778  0.018963208         0.05    6.4845536 0.0071145281    97.009193    8087.3352 
  222700    1872.1978   0.33112122     12.27955  0.018963208         0.05    5.6678159 0.0078348477     97.89956    8086.2291 
  222800     1872.991   0.33121992    12.284516  0.018963208         0.05    5.7809109 0.0079233524    95.809867    8085.2008 
  222900    1873.7786   0.33021964    12.289986  0.018963208         0.05    5.8830028 0.0078187927    94.720024    8084.2143 
  223000    1874.5496   0.33026046    12.294756  0.018963208         0.05    5.9354085 0.0075520329    96.103662    8083.1748 
  223100     1875.304   0.33073719    12.299715  0.018963208         0.05    6.0195321 0.0074940248    96.072359    8082.1365 
  223200    1876.0507   0.33117323    12.304112  0.018963208         0.05    6.0963412 0.0072785813    96.549248    8081.0803 
  223300    1876.8506   0.33057897     12.30867  0.018963208         0.05     6.055801 0.0080585692    96.226846    8080.0362 
  223400    1877.6754   0.33114971    12.313532  0.018963208         0.05    6.1906617 0.0080113714    98.016146    8078.9262 
  223500    1878.4838   0.33103026    12.318078  0.018963208         0.05    6.1905994 0.0080325992    96.491675    8077.8722 
  223600    1879.3108    0.3313718    12.323615  0.018963208         0.05    5.5731653 0.0085410899    93.750047    8076.9235 
  223700    1880.1598   0.33095182    12.329408  0.018963208         0.05    5.6525447 0.0084377116    81.363123    8076.5382 
  223800    1881.0017    0.3307523    12.333948  0.018963208         0.05    5.4910707 0.0090285331    88.032905    8075.8292 
  223900    1881.8935   0.33134106    12.339262  0.018963208         0.05    5.6241607 0.0088377401    95.831232    8074.7994 
  224000     1882.773   0.33130311    12.344835  0.018963208         0.05    5.7008321 0.0087260999    94.949995    8073.8032 
  224100    1883.6379   0.32978901    12.351251  0.018963208         0.05    5.7974649 0.0085798648    95.458016    8072.7875 
  224200     1884.484   0.32999677    12.356624  0.018963208         0.05    5.8072629 0.0084883073    98.123001    8071.6733 
  224300    1885.3273   0.33181579     12.36179  0.018963208         0.05     5.880556 0.0083976517    95.171195    8070.6685 
  224400    1886.1585   0.33098896    12.368018  0.018963208         0.05    5.8851684 0.0082001939    96.137408    8069.6272 
  224500    1886.9804   0.33050796    12.373182  0.018963208         0.05     5.872141 0.0081575467    96.702531    8068.5648 
  224600    1887.7593   0.33132212    12.378757  0.018963208         0.05    6.2818593 0.0076181218    97.432557    8067.4758 
  224700     1888.524   0.33176555    12.382978  0.018963208         0.05    6.3332014 0.0076049525    97.679909    8066.3778 
  224800    1889.2961   0.33210953    12.387276  0.018963208         0.05    6.1957761 0.0077894464    98.017681    8065.2678 
  224900    1890.0771   0.33092416    12.391979  0.018963208         0.05    6.2668848  0.007706977    95.500856    8064.2504 
  225000    1890.8455   0.33104784    12.396888  0.018963208         0.05    6.3349766 0.0076407059    95.301092    8063.2406 
  225100    1891.6057   0.33069241    12.401738  0.018963208         0.05    6.4126986 0.0075540026    94.964227    8062.2436 
  225200    1892.3619   0.33041036    12.406627  0.018963208         0.05    6.4486005 0.0075507746     97.14227    8061.1653 
  225300     1893.113    0.3297519    12.410595  0.018963208         0.05    6.5274176 0.0074595603    95.531983    8060.1468 
  225400    1893.8669   0.33071707    12.413983  0.018963208         0.05    5.9433765 0.0075968929    95.642428     8059.124 
  225500    1894.6278   0.33126396    12.418355  0.018963208         0.05    5.9572634 0.0075691008    96.316936    8058.0761 
  225600    1895.3834   0.33238527    12.422689  0.018963208         0.05    6.0017818 0.0075175125    96.068222    8057.0374 
  225700    1896.1317   0.32907375     12.42789  0.018963208         0.05    6.0772858  0.007441086    95.683163    8056.0131 
  225800    1896.8495   0.33115556    12.431988  0.018963208         0.05    6.1881751 0.0072523718    96.959901    8054.9415 
  225900     1897.584   0.33100412    12.436367  0.018963208         0.05    6.1109855 0.0072686667    98.405935    8053.8181 
  226000    1898.3176   0.32994529    12.441611  0.018963208         0.05    4.8115496 0.0073847929    96.825378    8052.7516 
  226100    1899.0552   0.33174736    12.445569  0.018963208         0.05    4.8350303 0.0073636009    95.149022    8051.7474 
  226200    1899.7904   0.33110124    12.449534  0.018963208         0.05    4.8711223 0.0072873063    95.876183    8050.7159 
  226300    1900.5532   0.33112224    12.453587  0.018963208         0.05    4.9367968 0.0076913904    97.047036    8049.6413 
  226400    1901.3225    0.3321997    12.458159  0.018963208         0.05    5.0629479 0.0076739089     97.01184    8048.5681 
  226500    1902.1259   0.33191937    12.462559  0.018963208         0.05    4.9600273 0.0086361582    97.842489     8047.465 
  226600    1903.0093   0.33077604    12.468016  0.018963208         0.05    5.0453575 0.0088832542    95.585932    8046.4443 
  226700     1903.879   0.33175702    12.473025  0.018963208         0.05     4.993568 0.0086478158    96.181875    8045.4015 
  226800    1904.7359   0.33168779    12.478188  0.018963208         0.05    5.3573156 0.0091482207    97.343012    8044.3165 
  226900    1905.6229   0.33142669    12.483602  0.018963208         0.05     5.322525 0.0089798292     96.70282    8043.2546 
  227000    1906.5266   0.33251484    12.488549  0.018963208         0.05     5.610183 0.0087232448    94.983732    8042.2565 
  227100     1907.404   0.33122938    12.493377  0.018963208         0.05    5.1394568 0.0080289768    96.573746    8041.1994 
  227200    1908.2152    0.3309641    12.498777  0.018963208         0.05    5.1155375 0.0080803921    96.792599    8040.1343 
  227300    1909.0167   0.33168539    12.502988  0.018963208         0.05    5.2435186 0.0078498559    95.317964    8039.1236 
  227400    1909.8371   0.32972352    12.508321  0.018963208         0.05    4.8062433 0.0085540816    97.212246    8038.0434 
  227500    1910.6966    0.3300906    12.513597  0.018963208         0.05    5.1349744 0.0086466717    99.362388    8036.8877 
  227600    1911.5659   0.32993141     12.51872  0.018963208         0.05    5.2219038 0.0087463125    98.767683    8035.7526 
  227700    1912.4472   0.33016459    12.523941  0.018963208         0.05    5.3100322  0.008899162    97.502295    8034.6623 
  227800    1913.3362    0.3307366     12.52946  0.018963208         0.05    5.3998554 0.0087590197     97.89467     8033.558 
  227900    1914.2366    0.3314551    12.535848  0.018963208         0.05    5.4871437 0.0090035265    95.646921    8032.5352 
  228000    1915.1294   0.33031376     12.54131  0.018963208         0.05    5.4038635 0.0090090777    95.681221     8031.511 
  228100    1916.0241   0.33123344    12.546789  0.018963208         0.05    5.2390471 0.0090080619    95.664221    8030.4875 
  228200    1916.9188   0.33177092    12.552876  0.018963208         0.05    5.2035656 0.0088631532    95.769199    8029.4601 
  228300     1917.784    0.3304068    12.557767  0.018963208         0.05    5.4023301 0.0083475089    97.520544    8028.3693 
  228400    1918.6398   0.32860412    12.562721  0.018963208         0.05    5.6616358 0.0082729692    95.787177    8027.3412 
  228500    1919.4669   0.32965898    12.567871  0.018963208         0.05     5.934811 0.0080967044    96.568454    8026.2846 
  228600    1920.2804   0.33087724    12.572959  0.018963208         0.05    6.1404105 0.0080262949    97.894487    8025.1806 
  228700    1921.0785   0.33031204    12.577902  0.018963208         0.05    6.2202199 0.0079261831    94.846247    8024.1875 
  228800    1921.8667   0.33042497    12.583033  0.018963208         0.05    6.2990446 0.0078296942    95.822978    8023.1581 
  228900    1922.6389   0.33030939    12.587892  0.018963208         0.05    5.2879446 0.0076139896    95.087674    8022.1559 
  229000    1923.3976   0.33036803    12.592783  0.018963208         0.05    5.3484001  0.007552778    94.425495    8021.1784 
  229100      1924.15   0.33130634    12.597623  0.018963208         0.05     5.504481 0.0074932137    95.237732    8020.1705 
  229200    1924.9035   0.33085927     12.60239  0.018963208         0.05    5.2596647 0.0084969215    95.778646    8019.1426 
  229300    1925.7512   0.33029652    12.608012  0.018963208         0.05    5.2803071 0.0089241175    96.132495    8018.1018 
  229400    1926.6358   0.33219096    12.613279  0.018963208         0.05    5.2256972  0.009005912    97.648822    8017.0067 
  229500      1927.55   0.33083324    12.618863  0.018963208         0.05    5.2336929 0.0093029988    97.578194    8015.9142 
  229600    1928.4719   0.33100584    12.624253  0.018963208         0.05    5.4802935 0.0089802079    95.263148    8014.9053 
  229700    1929.3664   0.33191219    12.629417  0.018963208         0.05    5.6852027 0.0087752169    96.736766    8013.8427 
  229800    1930.2566   0.33120313    12.634956  0.018963208         0.05    5.5564356 0.0088803368    96.369562    8012.7934 
  229900    1931.1195   0.32963981    12.640465  0.018963208         0.05    5.5348741  0.008098172    98.184767    8011.6798 
  230000    1931.9319   0.33006425    12.645701  0.018963208         0.05    5.1204015 0.0081178574    96.301722    8010.6329 
  230100    1932.7427   0.32952546    12.650858  0.018963208         0.05    5.4330431 0.0081060853    96.813287    8009.5678 
  230200    1933.5426   0.33126829    12.656138  0.018963208         0.05    5.2639284 0.0080344619    95.575085    8008.5473 
  230300    1934.3417   0.33074497    12.661469  0.018963208         0.05    5.2225831 0.0079464525    95.555597    8007.5276 
  230400     1935.125   0.32998498    12.666634  0.018963208         0.05    5.3009189  0.007764222    95.610619    8006.5059 
  230500    1935.9163   0.33151127    12.671579  0.018963208         0.05    5.3801782   0.00820093    96.211284    8005.4623 
  230600    1936.7394    0.3306183    12.677635  0.018963208         0.05    5.5329936 0.0082407373    97.297578      8004.38 
  230700    1937.5607    0.3311214    12.682731  0.018963208         0.05    4.9063788 0.0081766863    95.721989    8003.3542 
  230800    1938.3789     0.331724    12.687775  0.018963208         0.05    5.0774874 0.0081120428    96.170208    8002.3121 
  230900    1939.1976   0.33152589    12.693067  0.018963208         0.05    4.9257017 0.0089327481    96.486459    8001.2587 
  231000    1940.0876   0.33065331    12.699193  0.018963208         0.05    5.0096979 0.0087369616    95.316512    8000.2476 
  231100    1940.9732   0.32995093    12.705041  0.018963208         0.05    5.4745826 0.0086116337    96.697581    7999.1867 
  231200    1941.8583   0.32863751     12.71152  0.018963208         0.05    5.3944581 0.0088757736    98.552367     7998.061 
  231300    1942.7169   0.33061717    12.717087  0.018963208         0.05    5.4930594 0.0081664142     96.89022    7996.9933 
  231400    1943.5571   0.33169287    12.722833  0.018963208         0.05    5.4798195 0.0086911343    97.763467     7995.895 
  231500    1944.4322   0.33145917    12.729065  0.018963208         0.05    5.7233146  0.008626745    96.194713    7994.8522 
  231600    1945.2885    0.3314348    12.734237  0.018963208         0.05    5.7735511 0.0084192189    97.000286    7993.7807 
  231700    1946.1252   0.33276839    12.739037  0.018963208         0.05    5.8750463 0.0082978295     96.43834    7992.7292 
  231800    1946.9499   0.33205371    12.744527  0.018963208         0.05    6.0118634 0.0082418469    96.726281    7991.6674 
  231900    1947.7473   0.33111109    12.749592  0.018963208         0.05    6.5520073 0.0075330735    95.829327    7990.6378 
  232000    1948.4902   0.33034166    12.753753  0.018963208         0.05    6.5035099 0.0074383025    94.677411    7989.6501 
  232100    1949.2482   0.33095417    12.758504  0.018963208         0.05    6.5627466 0.0075565131    96.814047    7988.5853 
  232200    1950.0105   0.33116846    12.762992  0.018963208         0.05    6.5365409 0.0076411508    97.107094    7987.5101 
  232300    1950.7703   0.33032562    12.768096  0.018963208         0.05    6.6043762 0.0075607874    95.481985     7986.493 
  232400    1951.5223   0.33094747     12.77315  0.018963208         0.05    6.7094928 0.0074191771    95.793499    7985.4646 
  232500    1952.3258    0.3310742    12.778574  0.018963208         0.05    5.7177271 0.0081634871     95.59628    7984.4432 
  232600    1953.1374   0.33207016    12.783598  0.018963208         0.05    5.7991857 0.0080610973    96.097474    7983.4039 
  232700    1953.9384   0.33155554    12.788611  0.018963208         0.05    5.8994442 0.0079189386     95.42887    7982.3885 
  232800     1954.727   0.33162203    12.793519  0.018963208         0.05    5.3870753 0.0078598767    96.376515    7981.3392 
  232900    1955.5409   0.33139379    12.798632  0.018963208         0.05      4.87559 0.0086420469    96.942533      7980.27 
  233000    1956.3747   0.33074446    12.804124  0.018963208         0.05    4.8715575 0.0082825427    96.550359    7979.2146 
  233100    1957.1993   0.33134371    12.809115  0.018963208         0.05     4.858942 0.0077540492    94.989583    7978.2152 
  233200    1958.0408   0.33089281     12.81387  0.018963208         0.05    4.9504025 0.0088133923    97.550983    7977.1248 
  233300    1958.9352   0.33042082    12.819985  0.018963208         0.05    5.0362141 0.0090185597    96.223799     7976.081 
  233400    1959.8264   0.33079076    12.825797  0.018963208         0.05    5.4584883 0.0086585567     95.77974     7975.053 
  233500    1960.7185   0.33162241     12.83142  0.018963208         0.05    5.3266225 0.0090204541    97.426198    7973.9671 
  233600     1961.608   0.33074274    12.837717  0.018963208         0.05    5.4155764 0.0086700651     95.87581    7972.9356 
  233700    1962.4669   0.33010416    12.842861  0.018963208         0.05     5.531114 0.0084816179    96.079842    7971.8969 
  233800    1963.3366   0.33100725    12.848177  0.018963208         0.05    5.3757988  0.008842407    97.686598    7970.8021 
  233900    1964.1744   0.33044656    12.853262  0.018963208         0.05    5.5106765 0.0079422236    96.820327    7969.7374 
  234000    1965.0006   0.33101566    12.858633  0.018963208         0.05    5.4556846 0.0082445072     96.53216    7968.6828 
  234100    1965.8215   0.33210984    12.863342  0.018963208         0.05    5.4904664 0.0081585514    95.412654    7967.6679 
  234200    1966.6478   0.33138455    12.868422  0.018963208         0.05    5.5718432 0.0087983645    96.102208    7966.6285 
  234300     1967.519   0.33066668    12.874184  0.018963208         0.05    5.6595486 0.0086668682     96.44466    7965.5769 
  234400    1968.3799   0.32917462    12.880037  0.018963208         0.05      5.75357 0.0085562071     95.80223    7964.5481 
  234500    1969.2222   0.32934394     12.88512  0.018963208         0.05    5.5865454 0.0083924533    97.596017    7963.4567 
  234600     1970.051   0.32988766    12.890297  0.018963208         0.05    5.7337924 0.0082602472    97.084168    7962.3829 
  234700    1970.8758   0.33074339    12.895756  0.018963208         0.05    5.7595337 0.0081933658    95.212156    7961.3752 
  234800    1971.6891   0.33216472    12.900157  0.018963208         0.05    5.8780216 0.0080380249     95.09854    7960.3715 
  234900    1972.4806   0.33146527    12.905078  0.018963208         0.05    6.0282847 0.0077770145    95.792952     7959.343 
  235000    1973.2473   0.33088691    12.909569  0.018963208         0.05    5.9049907 0.0075940491    95.450739    7958.3267 
  235100    1973.9974   0.33094404    12.913814  0.018963208         0.05    5.9690602 0.0078642096    95.875701    7957.2952 
  235200    1974.8195   0.33064126    12.918931  0.018963208         0.05    6.0342639 0.0082225413    95.699275      7956.27 
  235300    1975.6365   0.33098528    12.924134  0.018963208         0.05    6.1185956 0.0081045875    95.574606    7955.2492 
  235400    1976.4437   0.33116673    12.929559  0.018963208         0.05    6.1814631 0.0080247581    95.034997    7954.2476 
  235500    1977.2416   0.33111309    12.934781  0.018963208         0.05    6.2648682 0.0079202905    94.160285    7953.2778 
  235600    1978.0272   0.32986733    12.939517  0.018963208         0.05    6.3432488 0.0078248163    97.001206    7952.2069 
  235700    1978.8037   0.32990174    12.945251  0.018963208         0.05    6.4240344 0.0077278961    95.821402    7951.1772 
  235800    1979.5716   0.33007713    12.950443  0.018963208         0.05    6.5103155 0.0076292589    95.271414    7950.1671 
  235900     1980.328   0.33096016    12.954541  0.018963208         0.05     6.594021 0.0075076256    95.536248    7949.1475 
  236000     1981.113   0.32988336    12.959101  0.018963208         0.05     5.991198  0.007937528    96.306653    7948.1008 
  236100    1981.8982   0.32953888     12.96427  0.018963208         0.05    6.1108237 0.0077922553    94.407918    7947.1216 
  236200    1982.7065   0.32925043    12.969409  0.018963208         0.05    5.2691772 0.0084099506    98.809263    7945.9898 
  236300     1983.543   0.33008038    12.974961  0.018963208         0.05     5.504239 0.0083797523    95.215507    7944.9816 
  236400    1984.3591   0.32976487    12.980151  0.018963208         0.05    6.3387882 0.0077885109    95.432322    7943.9656 
  236500    1985.1582   0.33106993    12.984923  0.018963208         0.05    6.1832049 0.0079734865    96.397624    7942.9157 
  236600    1985.9364   0.33036825    12.989799  0.018963208         0.05     6.430468 0.0076794808    95.195387    7941.9081 
  236700    1986.6986   0.33050733    12.994855  0.018963208         0.05    6.5981266 0.0074761092    94.293901    7940.9328 
  236800     1987.461   0.33009253    12.999986  0.018963208         0.05    5.0561377 0.0081012674    96.520075    7939.8787 
  236900    1988.2733   0.33137332       13.005  0.018963208         0.05    5.1492356 0.0080881579    95.804702    7938.8494 
  237000    1989.0763   0.33003662    13.010438  0.018963208         0.05    5.2345333 0.0089015406    94.987518    7937.8491 
  237100    1989.9635    0.3316194    13.015613  0.018963208         0.05    5.3232474 0.0088170126    96.177508    7936.8068 
  237200    1990.8084   0.33190343    13.020743  0.018963208         0.05    5.1548972 0.0080567992    95.760956    7935.7791 
  237300    1991.6134   0.33117799    13.026302  0.018963208         0.05    5.2031207 0.0079844331    96.382937    7934.7297 
  237400    1992.4009   0.33131059    13.031665  0.018963208         0.05    5.8661445 0.0078424851    96.588134    7933.6732 
  237500     1993.182   0.33118894    13.037022  0.018963208         0.05    5.9357619 0.0077559289    95.535443    7932.6533 
  237600    1993.9599   0.33185896    13.042416  0.018963208         0.05     5.033932 0.0089006762    95.204268    7931.6451 
  237700    1994.8722   0.33070079    13.048783  0.018963208         0.05    5.2025318 0.0088224565    97.307307    7930.5641 
  237800    1995.7971   0.33147597    13.054308  0.018963208         0.05     4.940357 0.0092155929     97.93131    7929.4622 
  237900    1996.7101   0.33158895    13.060765  0.018963208         0.05    5.0550837  0.009085884    95.743709     7928.435 
  238000     1997.615   0.33087287    13.065705  0.018963208         0.05     5.234275 0.0090130595    94.406771    7927.4552 
  238100    1998.5031   0.33035254    13.071888  0.018963208         0.05    5.3263226 0.0086162006    95.117519      7926.45 
  238200    1999.3802   0.33006207    13.078577  0.018963208         0.05     5.420595 0.0088147477    97.567071    7925.3603 
  238300    2000.2547   0.33009685    13.085561  0.018963208         0.05    5.3700016 0.0082394762    96.489611    7924.3073 
  238400    2001.1122   0.33066971    13.090695  0.018963208         0.05    5.3314676 0.0087986018    98.809146    7923.1766 
  238500    2001.9068   0.33145047    13.095692  0.018963208         0.05    5.4635048 0.0076087973    96.442908    7922.1252 
  238600    2002.6666   0.33108058    13.100773  0.018963208         0.05    5.5571442 0.0075653968    96.150235     7921.084 
  238700    2003.4203   0.33028129    13.105437  0.018963208         0.05    5.0990053 0.0075008685    95.728871    7920.0573 
  238800    2004.1645   0.33094113    13.110155  0.018963208         0.05    5.5109113  0.007186255    95.992039    7919.0215 
  238900    2004.9458   0.33121945    13.115351  0.018963208         0.05    5.6150257 0.0078564919    96.572256    7917.9658 
  239000    2005.7276   0.33157155    13.120293  0.018963208         0.05    5.6938266 0.0077719942    95.116267    7916.9605 
  239100    2006.4997   0.33039459    13.125482  0.018963208         0.05    5.6564645 0.0075916557    95.259968    7915.9501 
  239200    2007.2928   0.33132367    13.130393  0.018963208         0.05    5.2088602 0.0083232991    97.526054    7914.8622 
  239300     2008.118   0.32959176    13.136305  0.018963208         0.05    5.0463725 0.0078923845    96.826138    7913.7978 
  239400     2008.906   0.33062547    13.141038  0.018963208         0.05    5.1522005 0.0078516286     96.66803    7912.7389 
  239500    2009.6769   0.33151111    13.145455  0.018963208         0.05    6.0318709 0.0077600251    96.409235    7911.6887 
  239600    2010.4539   0.33158814        13.15  0.018963208         0.05    6.3361782 0.0077672564    95.817747     7910.659 
  239700    2011.2331   0.33255959    13.154684  0.018963208         0.05    6.1154239 0.0081269529    95.362976    7909.6449 
  239800    2012.0419   0.33110864    13.159767  0.018963208         0.05    6.1851378 0.0080421237    95.090757    7908.6404 
  239900    2012.8412   0.33025555    13.164618  0.018963208         0.05    6.3137203 0.0078813893    95.466859    7907.6227 
  240000    2013.6245   0.33058286    13.169054  0.018963208         0.05    6.4000052  0.007790503    95.084225    7906.6184 
  240100    2014.3984   0.33154775    13.173435  0.018963208         0.05    6.5058462  0.007671985    95.247075    7905.6083 
  240200    2015.1625   0.33149803    13.178617  0.018963208         0.05    6.5819607 0.0075838182    95.223505    7904.5989 
  240300    2015.9084    0.3322392    13.184019  0.018963208         0.05    6.7349427 0.0074065141    96.220466    7903.5552 
  240400    2016.6454   0.33399536    13.188894  0.018963208         0.05     6.808635 0.0073265749    94.270864    7902.5794 
  240500    2017.3746   0.33366659    13.193939  0.018963208         0.05    6.8815509 0.0072492977    95.518733    7901.5597 
  240600    2018.0961   0.33242176    13.197958  0.018963208         0.05     6.953705 0.0071744126    95.268406    7900.5487 
  240700    2018.8081   0.33265338    13.202372  0.018963208         0.05    7.0579104 0.0070601377    95.165688    7899.5413 
  240800    2019.5087   0.33292921    13.206992  0.018963208         0.05    7.1202143 0.0069683092     95.69945    7898.5153 
  240900     2020.217   0.33190706    13.211691  0.018963208         0.05     5.996012  0.007468574    93.371899    7897.5714 
  241000    2020.9621   0.33166374    13.216695  0.018963208         0.05    6.1428387 0.0074160311     91.29619     7896.704 
  241100    2021.6986   0.33280591    13.222055  0.018963208         0.05    6.1966842 0.0074638732     93.83644    7895.7432 
  241200    2022.4438   0.33194734    13.227374  0.018963208         0.05    6.3185727 0.0073926882    93.035983    7894.8111 
  241300    2023.1807   0.33086533    13.232572  0.018963208         0.05     6.400624 0.0073565371    93.679441    7893.8557 
  241400    2023.9133   0.33187068    13.237174  0.018963208         0.05    6.4405076  0.007296256    92.201088    7892.9539 
  241500    2024.6381   0.33264846     13.24196  0.018963208         0.05    6.7452054 0.0073023658     93.85204    7891.9921 
  241600    2025.3662   0.33124235    13.246917  0.018963208         0.05    6.8039749 0.0072415408    95.938618    7890.9575 
  241700     2026.087   0.33094024    13.251988  0.018963208         0.05    6.8760566 0.0071677909    95.494029    7889.9381 
  241800    2026.8005   0.33119754    13.257383  0.018963208         0.05    6.9465775 0.0070959839    95.400002    7888.9219 
  241900    2027.5061    0.3314099    13.261828  0.018963208         0.05    7.1785737 0.0068686716    95.970954    7887.8861 
  242000     2028.172   0.33255316    13.266446  0.018963208         0.05    7.7730857 0.0063280106    96.857732    7886.8204 
  242100    2028.8115   0.33237234    13.270467  0.018963208         0.05      7.67645 0.0063887329    96.357673    7885.7716 
  242200     2029.448   0.33139664    13.275483  0.018963208         0.05    7.7376857 0.0063376821    95.353979    7884.7569 
  242300    2030.0797   0.33178153    13.279907  0.018963208         0.05    7.7950832 0.0062928118    95.029398    7883.7534 
  242400    2030.7044   0.33154564    13.284422  0.018963208         0.05    7.9061965 0.0062158403     96.63618    7882.6952 
  242500    2031.3275   0.33222853    13.287921  0.018963208         0.05    7.9249324  0.006206417    96.388984    7881.6453 
  242600     2031.983   0.33212235    13.292777  0.018963208         0.05    5.9074337 0.0080789841    96.681511    7880.5856 
  242700     2032.796   0.33202475    13.298094  0.018963208         0.05     6.013994 0.0081885308    95.484441    7879.5663 
  242800    2033.6041   0.33257127    13.303703  0.018963208         0.05    6.0435428 0.0080884925    97.275983    7878.4869 
  242900     2034.409    0.3315423    13.308477  0.018963208         0.05    6.1175319 0.0079911351    95.658264    7877.4618 
  243000    2035.2008    0.3314018    13.313774  0.018963208         0.05    6.3182963 0.0077206534    93.421105    7876.5146 
  243100    2035.9686   0.33262498    13.318778  0.018963208         0.05    5.3906771 0.0079432073    96.626273    7875.4567 
  243200    2036.7876   0.33105998    13.324116  0.018963208         0.05    5.2367392 0.0088699805    96.215014    7874.4127 
  243300    2037.6725   0.33154806    13.330069  0.018963208         0.05    5.5480177 0.0086035514    94.094611    7873.4414 
  243400     2038.529   0.33147608    13.335576  0.018963208         0.05    4.6299649 0.0086629384    94.487417    7872.4564 
  243500     2039.362   0.33238123    13.340566  0.018963208         0.05    4.6394849 0.0078222419    94.035965    7871.4871 
  243600     2040.164    0.3309595     13.34557  0.018963208         0.05    4.5968728 0.0080963034     94.46903    7870.5026 
  243700    2040.9651   0.33206157    13.350682  0.018963208         0.05    5.6260173 0.0082259147    94.027279    7869.5335 
  243800    2041.8448   0.33170212    13.356008  0.018963208         0.05    4.5982106 0.0088165815    97.066935    7868.4609 
  243900    2042.7426   0.33101561    13.361847  0.018963208         0.05    5.6786461 0.0086685168    97.872923    7867.3621 
  244000    2043.6366   0.33126791    13.367255  0.018963208         0.05    4.9441998 0.0091367659     97.78145    7866.2664 
  244100    2044.5128   0.33085633    13.373104  0.018963208         0.05    4.8248739  0.008539765    97.062106    7865.1942 
  244200    2045.3786   0.33030074    13.377884  0.018963208         0.05    5.0679936 0.0086302727    97.568796    7864.1054 
  244300    2046.2146   0.33155626    13.382662  0.018963208         0.05    5.0669747 0.0094959469    96.369008    7863.0562 
  244400    2047.1116   0.33031216     13.38711  0.018963208         0.05    5.1566734 0.0080282468    98.539147    7861.9363 
  244500    2047.9736   0.33082606    13.392687  0.018963208         0.05    5.2428693 0.0089111513     99.16189    7860.7968 
  244600     2048.832   0.33073665    13.398666  0.018963208         0.05    5.3287533 0.0085661977    98.043343     7859.693 
  244700    2049.6961   0.32984687    13.403731  0.018963208         0.05    5.5251483 0.0089524495    97.193909    7858.6167 
  244800    2050.5972   0.33198939    13.408802  0.018963208         0.05     5.325472 0.0089567954    96.492785    7857.5635 
  244900    2051.3998     0.331274    13.413309  0.018963208         0.05    5.4703539 0.0070197336    97.093607    7856.4906 
  245000    2052.1006   0.33163254    13.417365  0.018963208         0.05    5.5271582 0.0070284991    96.777211    7855.4281 
  245100     2052.801   0.33171025    13.421264  0.018963208         0.05    5.5957174 0.0069746963    94.217056    7854.4521 
  245200    2053.4961   0.33104601    13.425417  0.018963208         0.05    5.6652272  0.006922178    96.262226    7853.4066 
  245300    2054.2256   0.32999993    13.428987  0.018963208         0.05    4.8393527 0.0081565673    96.311186    7852.3595 
  245400    2055.0261   0.33177611    13.433454  0.018963208         0.05    5.4763453 0.0078392684    96.842838    7851.2949 
  245500    2055.8098    0.3317916    13.437857  0.018963208         0.05    5.5210406 0.0078037852    96.516988     7850.241 
  245600    2056.5914   0.33049455     13.44235  0.018963208         0.05     5.035947 0.0080418782    96.677009    7849.1818 
  245700    2057.3999   0.33164337    13.446609  0.018963208         0.05    4.5893963 0.0081777231    98.647169    7848.0593 
  245800    2058.1703   0.33124095    13.450566  0.018963208         0.05    4.7292201 0.0074204691    97.485072    7846.9739 
  245900    2058.9161   0.33074741    13.455059  0.018963208         0.05    4.7996563 0.0072658657    96.708439    7845.9138 
  246000    2059.7087   0.33186186    13.459811  0.018963208         0.05    4.8775844 0.0079520399    96.065252     7844.875 
  246100    2060.4961   0.33144382    13.463794  0.018963208         0.05    4.9755197 0.0080488055    96.138422    7843.8338 
  246200    2061.2959   0.33127365    13.467569  0.018963208         0.05    4.8068725 0.0080486692    98.299707    7842.7225 
  246300    2062.0979   0.33176935    13.472204  0.018963208         0.05    4.9349367 0.0080017782    96.920826    7841.6556 
  246400    2062.8935   0.33118189    13.476427  0.018963208         0.05    5.0297035  0.007890933    95.551875    7840.6339 
  246500    2063.6927   0.33158709    13.481148  0.018963208         0.05    5.1442857 0.0079810641    98.425471    7839.5188 
  246600    2064.5406   0.33026687    13.486088  0.018963208         0.05    5.2022261 0.0085575859     97.17353    7838.4438 
  246700    2065.3928   0.33198174    13.491143  0.018963208         0.05    5.2601526 0.0084701711    95.294727    7837.4308 
  246800    2066.2721   0.33176787    13.495837  0.018963208         0.05    5.2760881 0.0089537408    97.145667    7836.3567 
  246900    2067.1637    0.3307464    13.500587  0.018963208         0.05    5.4132257  0.009062608    96.792375    7835.2941 
  247000    2068.0703    0.3305737    13.506975  0.018963208         0.05    5.4873168 0.0090259479    96.905711    7834.2279 
  247100    2068.9625   0.33019375    13.512026  0.018963208         0.05    5.4825934 0.0089855765    95.918017     7833.194 
  247200    2069.8576   0.33035551    13.517696  0.018963208         0.05     5.546545 0.0088894388    96.664042    7832.1357 
  247300    2070.7394   0.33111511    13.523193  0.018963208         0.05    5.6402367 0.0087412761    96.374478    7831.0868 
  247400    2071.6079   0.33159822    13.527507  0.018963208         0.05    5.7266163  0.008615364    95.353328    7830.0718 
  247500    2072.4597   0.33039689    13.532914  0.018963208         0.05      5.94897  0.008285276    94.840864    7829.0739 
  247600    2073.2828   0.32958321     13.53843  0.018963208         0.05    5.6892427 0.0084229258    98.351339    7827.9617 
  247700    2074.1283   0.33062324    13.543409  0.018963208         0.05    5.7036355  0.008389209    95.870836    7826.9294 
  247800      2074.97   0.33113148    13.548494  0.018963208         0.05    5.6131474 0.0084386939    92.969539    7825.9959 
  247900    2075.8153   0.33107274    13.553281  0.018963208         0.05    5.7016847 0.0084153557    92.971022    7825.0622 
  248000    2076.6673   0.33202345    13.558493  0.018963208         0.05    5.3458761 0.0088948315    94.015097    7824.0922 
  248100    2077.5727   0.33156019     13.56501  0.018963208         0.05    5.2687765 0.0091964607    96.458345    7823.0405 
  248200    2078.5078   0.33047941    13.570596  0.018963208         0.05    5.1646579  0.009442531    96.662705    7821.9822 
  248300    2079.4498   0.33094095    13.576584  0.018963208         0.05    4.8704359 0.0096365736    95.234661    7820.9708 
  248400    2080.3492    0.3300534    13.582331  0.018963208         0.05    4.6984389 0.0088888008    97.879044    7819.8736 
  248500    2081.2436   0.33040995    13.587542  0.018963208         0.05     4.633212 0.0089815175    98.299523    7818.7632 
  248600    2082.1367   0.33016563    13.592161  0.018963208         0.05    4.7058127 0.0088381897    98.499067    7817.6467 
  248700    2083.0327     0.331037    13.597913  0.018963208         0.05    4.7978118 0.0090809326     98.35812    7816.5346 
  248800    2083.9342   0.33025765    13.604434  0.018963208         0.05    4.8879616 0.0089828716    98.115978    7815.4302 
  248900    2084.7958   0.33150259    13.610463  0.018963208         0.05     4.974121 0.0083197004    97.169365    7814.3558 
  249000    2085.7421   0.33117271    13.616419  0.018963208         0.05    5.0686693 0.0093100021    96.948538    7813.2886 
  249100    2086.6036   0.33093245    13.622192  0.018963208         0.05    5.1502243 0.0082482025    97.144812     7812.215 
  249200    2087.4609   0.33117695    13.627529  0.018963208         0.05    5.2761326 0.0082611788    98.621074    7811.0951 
  249300    2088.2902   0.33233664    13.632967  0.018963208         0.05    5.5713748 0.0086263661    97.383694    7810.0141 
  249400    2089.1425    0.3306551    13.638607  0.018963208         0.05     5.563135 0.0085163002    98.419974    7808.9006 
  249500    2089.9696   0.33072659    13.644495  0.018963208         0.05    5.6469846 0.0075306266    97.202603    7807.8254 
  249600    2090.7246   0.33218318     13.64973  0.018963208         0.05    5.7269848 0.0075831269    99.628191     7806.675 
  249700    2091.5394   0.33102007    13.654768  0.018963208         0.05    5.8074131 0.0085787591    97.076258    7805.6039 
  249800    2092.3819   0.33355817    13.659901  0.018963208         0.05    5.9041868 0.0084129223    97.009394     7804.535 
  249900     2093.219   0.33275198     13.66635  0.018963208         0.05    5.9021625 0.0084225956     98.02027    7803.4343 
  250000    2094.0696   0.33219704    13.671828  0.018963208         0.05    5.6010001 0.0083901298    96.063712    7802.3959 
  250100    2094.9127   0.33185349     13.67756  0.018963208         0.05     5.344495 0.0085606938    96.889817     7801.331 
  250200    2095.7506   0.33126891    13.683449  0.018963208         0.05    5.3932459 0.0080912483    95.939277    7800.2967 
  250300    2096.5627   0.33147482    13.688996  0.018963208         0.05    5.4726048 0.0081646502    96.578615    7799.2417 
  250400    2097.3645    0.3311611    13.694025  0.018963208         0.05    5.6093542  0.007897776    98.236554    7798.1345 
  250500    2098.1591   0.33151957    13.699314  0.018963208         0.05    5.7197556 0.0084486367    98.192858    7797.0286 
  250600    2099.0066    0.3317714    13.704634  0.018963208         0.05    5.4481538 0.0085450345    97.228967     7795.953 
  250700    2099.8588   0.33098856    13.710306  0.018963208         0.05    5.5136251 0.0084858007    97.229936    7794.8775 
  250800      2100.69   0.33004252    13.716222  0.018963208         0.05    5.4318332 0.0079060828    96.560873    7793.8232 
  250900    2101.4577   0.33327632    13.721443  0.018963208         0.05    5.6634373 0.0071417005    96.729493    7792.7636 
  251000    2102.1767   0.33159774    13.726318  0.018963208         0.05    5.7174927 0.0071369281     97.35458    7791.6842 
  251100    2102.8894   0.33114645    13.731345  0.018963208         0.05    5.4649517 0.0070996549    95.801026    7790.6545 
  251200    2103.5995   0.33187337    13.736321  0.018963208         0.05    5.5792002 0.0070909472    97.520272      7789.57 
  251300    2104.3132   0.33145138    13.741609  0.018963208         0.05    5.5769636 0.0072259536     98.49111    7788.4554 
  251400    2105.1176   0.33159918    13.746255  0.018963208         0.05    5.6703377 0.0081605097    97.805916     7787.362 
  251500    2105.9301   0.33154273    13.750645  0.018963208         0.05    5.6449522  0.008057075    96.597633    7786.3068 
  251600    2106.7604    0.3302068    13.755334  0.018963208         0.05    5.5394288 0.0085169793    97.826971    7785.2128 
  251700    2107.6086   0.33145184    13.760148  0.018963208         0.05    5.5925144  0.008541433    98.085277     7784.111 
  251800    2108.4584   0.33016512    13.766203  0.018963208         0.05    5.6774881 0.0084346224    96.283285    7783.0659 
  251900    2109.2967   0.33160608    13.771501  0.018963208         0.05    5.7613231 0.0083218361    96.342733    7782.0189 
  252000     2110.124   0.33141599    13.777609  0.018963208         0.05    5.8440498 0.0082133346    94.999588    7781.0154 
  252100    2110.9399   0.33196624    13.782485  0.018963208         0.05    5.9389113 0.0080440762     96.16624    7779.9741 
  252200    2111.7324   0.33146178     13.78733  0.018963208         0.05    6.3876487 0.0077482367     98.01491    7778.8745 
  252300     2112.546   0.33159501    13.792661  0.018963208         0.05    5.2409998 0.0081776735    97.498102    7777.7911 
  252400    2113.3981     0.331255     13.79781  0.018963208         0.05    5.5883856  0.008574246    97.515783    7776.7072 
  252500    2114.2428   0.33195572    13.802584  0.018963208         0.05    5.8708052 0.0083605509    97.851483    7775.6129 
  252600    2115.0712   0.33164901    13.807555  0.018963208         0.05    5.7439628 0.0083456323    96.795101    7774.5517 
  252700    2115.8969   0.33241895    13.812016  0.018963208         0.05    5.8277092 0.0082354105    96.977051    7773.4847 
  252800    2116.6996   0.33169539    13.817266  0.018963208         0.05    5.0606363 0.0079406663    97.522517    7772.4007 
  252900    2117.4901   0.33226364    13.821678  0.018963208         0.05    5.0523145 0.0078602571      95.9287    7771.3671 
  253000    2118.2735   0.33155433    13.825983  0.018963208         0.05    5.1897598  0.007839494    95.978508    7770.3319 
  253100    2119.0544   0.33155429    13.830802  0.018963208         0.05    4.6992874 0.0077719041    95.840057    7769.3012 
  253200    2119.8281   0.33085615    13.836341  0.018963208         0.05    4.7803457 0.0075913444    95.741042    7768.2736 
  253300    2120.6799    0.3319298    13.841431  0.018963208         0.05    5.1338531 0.0089486811    98.115404    7767.1715 
  253400    2121.5562   0.33078067    13.847578  0.018963208         0.05    4.9401669 0.0087819766    99.039032    7766.0414 
  253500    2122.4339   0.33141232      13.8526  0.018963208         0.05    5.2144755 0.0087830189    99.237554    7764.9055 
  253600     2123.304   0.33093147    13.857922  0.018963208         0.05    5.2022632  0.008965665    97.903696    7763.8101 
  253700    2124.2095   0.33074903    13.863502  0.018963208         0.05    5.2436525 0.0091971523    98.672256    7762.6914 
  253800    2125.1211   0.33086492    13.869327  0.018963208         0.05    5.0177648 0.0090114331    97.132169      7761.62 
  253900    2125.9852   0.32939419    13.874291  0.018963208         0.05    5.2860981 0.0084128807    96.388431    7760.5719 
  254000    2126.8448   0.33072643    13.878473  0.018963208         0.05    4.6487155 0.0086093901    97.649959    7759.4845 
  254100    2127.7044   0.33065647    13.884077  0.018963208         0.05     4.488067 0.0086431734    95.779281    7758.4559 
  254200     2128.564    0.3300783    13.889731  0.018963208         0.05     4.549563 0.0084657532    95.780396    7757.4272 
  254300    2129.4298   0.33114071    13.895265  0.018963208         0.05    4.8956262 0.0084475253    98.561399    7756.3121 
  254400     2130.278   0.32947972     13.90133  0.018963208         0.05    4.9605212 0.0085349253    99.491902    7755.1693 
  254500    2131.1415   0.33006726    13.906221  0.018963208         0.05    5.0296846 0.0089684324    98.990881    7754.0415 
  254600    2132.0384   0.33000109    13.912466  0.018963208         0.05     5.113745 0.0086232688    94.714997    7753.0473 
  254700    2132.9092   0.33050207     13.91791  0.018963208         0.05     5.394015 0.0088175435    95.731537    7752.0203 
  254800    2133.7818   0.33045464    13.923251  0.018963208         0.05    5.0871138 0.0088912085    94.035691    7751.0483 
  254900    2134.6705   0.33122268    13.928954  0.018963208         0.05    5.2236691 0.0093564503    94.437698    7750.0631 
  255000     2135.554   0.32972208    13.934992  0.018963208         0.05    5.3893671 0.0087590224    92.682543    7749.1363 
  255100    2136.4244   0.33125768    13.940898  0.018963208         0.05    5.4208689 0.0086766673    93.229752     7748.191 
  255200     2137.286   0.32940281    13.946688  0.018963208         0.05    5.5296977 0.0085529993    92.892428    7747.2569 
  255300    2138.1358   0.33054969    13.951722  0.018963208         0.05    5.6288193 0.0084314346    92.478783    7746.3368 
  255400     2138.974   0.33147423    13.957391  0.018963208         0.05    5.7144322  0.008319497    92.813104    7745.4051 
  255500    2139.8011   0.33035272    13.962971  0.018963208         0.05    5.7977242 0.0082157553     92.76585     7744.475 
  255600    2140.6212   0.33042614    13.968822  0.018963208         0.05    5.8690155 0.0081455801    93.160341    7743.5314 
  255700    2141.4392   0.33103732    13.974402  0.018963208         0.05    5.6384274 0.0082148872    94.183438    7742.5538 
  255800    2142.2955   0.33190257    13.979003  0.018963208         0.05    5.2827363 0.0087982327    96.638429    7741.4977 
  255900    2143.1617   0.33085983    13.984767  0.018963208         0.05    5.3652286 0.0085654473    97.279751    7740.4217 
  256000    2144.0087   0.33064419    13.989569  0.018963208         0.05    5.2084538 0.0091173922    96.158192    7739.3807 
  256100    2144.9115   0.33160174    13.994616  0.018963208         0.05    5.3271867 0.0090091586    96.754953     7738.321 
  256200    2145.8037   0.32950242     14.00036  0.018963208         0.05    5.2255258  0.008657348    96.271594    7737.2763 
  256300    2146.6637   0.33057992    14.006063  0.018963208         0.05    5.3136735 0.0086499006    98.245137    7736.1712 
  256400    2147.5155   0.33065202    14.011176  0.018963208         0.05    5.4568778 0.0085287477      97.2477    7735.0964 
  256500    2148.3583   0.33110607     14.01622  0.018963208         0.05     5.356159  0.008434104    96.475451    7734.0455 
  256600    2149.2202   0.33138821     14.02219  0.018963208         0.05    5.1344912 0.0085992827    97.961616     7732.949 
  256700    2150.0787   0.33000351    14.028448  0.018963208         0.05    5.2147374 0.0082016632    98.409421    7731.8391 
  256800    2150.8967   0.33168486     14.03371  0.018963208         0.05    5.3767802 0.0081558437    95.137519    7730.8305 
  256900    2151.7095   0.33130292    14.039405  0.018963208         0.05    5.5171346 0.0079998809    96.483551    7729.7794 
  257000    2152.5477   0.33109779     14.04456  0.018963208         0.05    5.5286931 0.0085976968    97.633093     7728.693 
  257100    2153.4124   0.33287736    14.049558  0.018963208         0.05      5.43944 0.0086448997     98.02547    7727.5949 
  257200    2154.2847   0.33235754    14.055549  0.018963208         0.05    5.5267317 0.0087543766    97.642525    7726.5083 
  257300    2155.1459   0.33059782    14.061352  0.018963208         0.05    5.4091207 0.0084948365    97.672539    7725.4209 
  257400    2155.9908   0.33025314    14.067629  0.018963208         0.05     5.204103 0.0085335978    97.601831    7724.3357 
  257500     2156.838    0.3316856    14.073611  0.018963208         0.05    5.2936067 0.0083034457    96.207511    7723.2934 
  257600    2157.6865   0.33163069    14.079588  0.018963208         0.05    5.4288875 0.0086114903    96.733509    7722.2347 
  257700    2158.5418   0.33110422    14.087196  0.018963208         0.05    5.5168518  0.008494381    95.893346    7721.2022 
  257800    2159.3832   0.33155791    14.092478  0.018963208         0.05    5.5216943 0.0084237571    79.846639     7720.773 
  257900    2160.2201   0.33109693     14.09861  0.018963208         0.05    5.6092218  0.008346176    90.862424    7719.9063 
  258000    2161.0484   0.33139718    14.104512  0.018963208         0.05    5.7065152  0.008212412    87.749075    7719.1517 
  258100     2161.865    0.3314367     14.11009  0.018963208         0.05    5.7903164 0.0081108915    89.820156    7718.3213 
  258200    2162.6831   0.33185788    14.115346  0.018963208         0.05    5.3725367  0.008961618    90.421219    7717.4694 
  258300    2163.5948   0.33206209    14.120653  0.018963208         0.05      5.42741 0.0088559599    91.076259    7716.5944 
  258400    2164.4887   0.33193328    14.126088  0.018963208         0.05    5.3179829 0.0088028333    90.837492    7715.7276 
  258500    2165.3796   0.33235987    14.131767  0.018963208         0.05    5.3684565 0.0092749396     89.32225    7714.9142 
  258600    2166.2852   0.33073717    14.138159  0.018963208         0.05    5.1064306 0.0089561405    90.784465    7714.0488 
  258700    2167.1727   0.33212378    14.144479  0.018963208         0.05    5.2281725  0.008815554    89.853464    7713.2159 
  258800    2168.0456   0.33250251    14.149727  0.018963208         0.05     5.436805 0.0084928603    89.381562    7712.3997 
  258900    2168.9186   0.33258459    14.155491  0.018963208         0.05    5.2379092 0.0092455974    90.641207    7711.5387 
  259000    2169.8134   0.33203166    14.161478  0.018963208         0.05    5.3392077 0.0087766769    89.551579    7710.7159 
  259100    2170.7031   0.33188783    14.166695  0.018963208         0.05    5.4198018 0.0090447261    91.211653    7709.8348 
  259200    2171.5949   0.33091931    14.171477  0.018963208         0.05    5.5087482 0.0089151683    90.157683    7708.9902 
  259300    2172.4804   0.33064513    14.176803  0.018963208         0.05    5.5920364 0.0087828259    89.620904    7708.1643 
  259400    2173.3511   0.33116394    14.182553  0.018963208         0.05    5.6509535 0.0086430262    89.615446    7707.3384 
  259500    2174.2099   0.33171182    14.187622  0.018963208         0.05    5.7147773 0.0085141448    89.741248    7706.5078 
  259600    2175.0574   0.33127055    14.193258  0.018963208         0.05    5.8151675 0.0082863976    88.954909    7705.7051 
  259700    2175.8911   0.33043371    14.198749  0.018963208         0.05    5.8747971 0.0083027648    90.314484    7704.8539 
  259800    2176.7068   0.33120557    14.203848  0.018963208         0.05    6.0958625 0.0079650907     90.47474    7703.9969 
  259900    2177.4934   0.33146123    14.208427  0.018963208         0.05    6.1725547  0.007694052    90.990233    7703.1219 
  260000    2178.3888   0.33188026    14.214639  0.018963208         0.05    4.9370022 0.0091293923    91.478084      7702.23 
  260100    2179.2835   0.33246288    14.220557  0.018963208         0.05    5.5782397 0.0079582161    89.967698    7701.3902 
  260200    2180.0932   0.33105685    14.225796  0.018963208         0.05    5.2296675 0.0087032746     89.79362    7700.5563 
  260300    2180.9543    0.3317504    14.231036  0.018963208         0.05    5.2351078 0.0086968903    90.268185    7699.7056 
  260400    2181.8203   0.33123745    14.236903  0.018963208         0.05    5.3316493 0.0086574574    91.020128    7698.8286 
  260500    2182.6825   0.33079554    14.242827  0.018963208         0.05    5.1766136 0.0083921523    90.982713    7697.9528 
  260600    2183.5163   0.33071938    14.248429  0.018963208         0.05    5.2583708 0.0083316798    90.764524    7697.0843 
  260700    2184.3929   0.33068224    14.254418  0.018963208         0.05    5.3460305 0.0085670509    89.517577    7696.2591 
  260800    2185.2638   0.32988373    14.260161  0.018963208         0.05    5.4331194 0.0088279277    91.241951    7695.3739 
  260900    2186.1378   0.33066947    14.266189  0.018963208         0.05    5.5200556 0.0089790021     90.16028    7694.5258 
  261000    2187.0105   0.33148362    14.271442  0.018963208         0.05    5.4336979 0.0089322147    89.988989    7693.6834 
  261100     2187.885   0.33116235    14.277628  0.018963208         0.05    5.5045303 0.0090722646    90.184008     7692.834 
  261200    2188.7851     0.331147     14.28365  0.018963208         0.05     5.560228  0.008957105    90.356432    7691.9785 
  261300    2189.6755   0.33026085    14.290201  0.018963208         0.05     5.183029 0.0089365865    89.464648    7691.1539 
  261400    2190.5988   0.33113457    14.295338  0.018963208         0.05    5.1701245 0.0092071609    90.565855    7690.2908 
  261500    2191.5104   0.33042781    14.301333  0.018963208         0.05    5.2603328 0.0089789043    89.412887    7689.4676 
  261600    2192.3962   0.33200601    14.308105  0.018963208         0.05    5.4521767 0.0087817854    89.846612     7688.629 
  261700    2193.2593   0.33111438    14.314804  0.018963208         0.05    5.4127076 0.0087825452    89.123304    7687.8156 
  261800    2194.1328   0.33179521    14.320456  0.018963208         0.05    5.4753108 0.0086461422    89.768694    7686.9793 
  261900    2194.9954    0.3306392    14.326289  0.018963208         0.05    5.6115812 0.0084663608    88.943534    7686.1719 
  262000    2195.8241   0.33137201    14.332028  0.018963208         0.05    5.6215105 0.0084701995    90.143925    7685.3221 
  262100    2196.6681   0.33131544    14.338681  0.018963208         0.05    5.9067487 0.0082847469    90.258006    7684.4681 
  262200     2197.503   0.33203878    14.343789  0.018963208         0.05    5.9008686 0.0083420263    91.481596    7683.5722 
  262300    2198.3254   0.33167946    14.348865  0.018963208         0.05    5.9635596  0.008198372    90.329344    7682.7154 
  262400    2199.1415   0.33115275    14.354378  0.018963208         0.05    6.0713512 0.0081164446    89.016284    7681.9044 
  262500    2199.9441   0.33208069    14.359394  0.018963208         0.05    6.5028288 0.0073081634     89.54267    7681.0745 
  262600    2200.6871   0.33132489    14.364457  0.018963208         0.05      6.08206  0.007956531    90.531314    7680.2101 
  262700    2201.4912   0.33040023    14.370561  0.018963208         0.05    6.1562382 0.0080313291    89.858411    7679.3688 
  262800    2202.2814   0.33235487    14.376155  0.018963208         0.05    6.2233025 0.0079394698    89.251278    7678.5485 
  262900    2203.0486   0.33174406    14.381294  0.018963208         0.05     6.286146 0.0077489415    89.940284     7677.704 
  263000    2203.8364   0.33222023    14.386407  0.018963208         0.05    5.9100193 0.0083195973    90.031446     7676.856 
  263100    2204.6772   0.33122984    14.392286  0.018963208         0.05    5.4441465 0.0085637412    90.237967    7676.0008 
  263200    2205.5268   0.33132602    14.397602  0.018963208         0.05    5.1989479 0.0084599743     90.88546    7675.1232 
  263300     2206.368   0.33154622    14.402533  0.018963208         0.05    5.2834027 0.0083538279    89.598102    7674.2897 
  263400    2207.2016   0.33189969     14.40789  0.018963208         0.05    5.3209689 0.0083871557    90.881246     7673.412 
  263500     2208.036   0.33068166    14.412855  0.018963208         0.05    5.4022785 0.0082865684    89.308366    7672.5882 
  263600    2208.8646     0.331062    14.417774  0.018963208         0.05    5.1724909 0.0080873128    89.238935    7671.7666 
  263700    2209.6572    0.3303948    14.422943  0.018963208         0.05    4.8625259 0.0076048138    89.719652    7670.9281 
  263800    2210.5217   0.33167758    14.427713  0.018963208         0.05    4.7493089 0.0087373878    90.022867    7670.0789 
  263900     2211.418   0.33063128    14.433422  0.018963208         0.05    4.8665846 0.0090408499    91.608813    7669.1758 
  264000     2212.294   0.32998981    14.438953  0.018963208         0.05    4.9613281 0.0077398764    88.537261    7668.3781 
  264100    2213.0624   0.33181456    14.444021  0.018963208         0.05    4.9960828 0.0078130584    91.077822    7667.4925 
  264200     2213.916   0.33078251    14.449436  0.018963208         0.05     5.305488 0.0091637604    88.982461    7666.6786 
  264300     2214.819   0.33078208    14.454751  0.018963208         0.05    5.3957808 0.0089968367    90.167916    7665.8234 
  264400    2215.7069   0.33075406    14.460537  0.018963208         0.05    5.4883763 0.0088742322    89.569689    7664.9886 
  264500    2216.5845   0.33158161    14.465936  0.018963208         0.05     5.530846 0.0086663087    89.065128    7664.1712 
  264600      2217.45   0.33152077    14.471532  0.018963208         0.05    5.7390473 0.0084792758    90.222418    7663.3136 
  264700    2218.3102   0.33182621    14.477014  0.018963208         0.05    5.6550504 0.0085723867    89.333417    7662.4863 
  264800     2219.153    0.3317079    14.482329  0.018963208         0.05    5.7022521  0.008233134    89.452952    7661.6547 
  264900    2219.9745   0.33180028     14.48612  0.018963208         0.05    5.7560413 0.0081276102    89.893058    7660.8078 
  265000    2220.7814   0.33099095    14.490661  0.018963208         0.05    5.2726276  0.007991776     89.13696    7659.9867 
  265100    2221.5787   0.33044925    14.494762  0.018963208         0.05    5.1081617 0.0079492488    89.974588    7659.1365 
  265200    2222.3713   0.33034734    14.499503  0.018963208         0.05     4.992306 0.0078891026    88.466691    7658.3386 
  265300     2223.158   0.33223223    14.503732  0.018963208         0.05    5.2337147 0.0077869735    88.899703    7657.5252 
  265400    2223.9409   0.33223713    14.507991  0.018963208         0.05    5.1006691 0.0078214753    91.272191    7656.6306 
  265500    2224.7658   0.33073259    14.513024  0.018963208         0.05    5.1870815 0.0083363046    89.518379    7655.7953 
  265600    2225.5887     0.332147    14.517917  0.018963208         0.05    5.4290542 0.0081706508    89.875125    7654.9475 
  265700    2226.4043   0.33229213      14.5224  0.018963208         0.05    5.1781625 0.0081247973    89.450396    7654.1141 
  265800    2227.2066   0.33162501    14.527003  0.018963208         0.05    4.9634115 0.0078416292    89.469209    7653.2798 
  265900     2228.078   0.33086045    14.531516  0.018963208         0.05    4.8674673 0.0089667901     91.92578    7652.3628 
  266000    2228.9793   0.33186555    14.536641  0.018963208         0.05    4.9637936 0.0090711933    90.598838    7651.4897 
  266100    2229.8913    0.3312325    14.541684  0.018963208         0.05    4.9493543 0.0091945245     92.97197    7650.5387 
  266200     2230.813   0.33132037     14.54676  0.018963208         0.05    5.0274257 0.0092575561    91.170097    7649.6462 
  266300    2231.7363   0.33120118    14.552028  0.018963208         0.05    5.1087002 0.0093620276    90.292631    7648.7829 
  266400    2232.6617     0.332271    14.557476  0.018963208         0.05    5.2012428 0.0091422273    90.518302    7647.9119 
  266500    2233.5886   0.33054571    14.563394  0.018963208         0.05    4.7661739 0.0093265607    89.597069    7647.0719 
  266600    2234.5195   0.33066645    14.568619  0.018963208         0.05    4.5722656 0.0094034379    89.717963    7646.2276 
  266700    2235.4818   0.33097552    14.573654  0.018963208         0.05    4.6235587 0.0097099596    90.104691    7645.3699 
  266800    2236.4126   0.33078894    14.579232  0.018963208         0.05    4.7671695 0.0085773845    90.473667    7644.4996 
  266900    2237.2662   0.33075569    14.583788  0.018963208         0.05    5.0623653 0.0084822174    88.411549       7643.7 
  267000    2238.1083   0.32956163    14.588584  0.018963208         0.05    4.9853786 0.0082631087    88.638411    7642.8921 
  267100    2238.9661   0.33035013    14.594004  0.018963208         0.05    5.0656465 0.0089595018    89.816598    7642.0434 
  267200     2239.849   0.33112927    14.599643  0.018963208         0.05    5.5803839 0.0086173296    89.648622    7641.2002 
  267300    2240.7181   0.33160759    14.605822  0.018963208         0.05    4.9375658 0.0087276346    90.948859    7640.3131 
  267400    2241.5517   0.33149357    14.611266  0.018963208         0.05     5.851125 0.0079814021    90.803018    7639.4307 
  267500    2242.3584   0.33095848    14.616505  0.018963208         0.05    5.7229675 0.0080632755    90.989247    7638.5419 
  267600    2243.1604   0.33161352    14.621698  0.018963208         0.05    5.8031691 0.0079680638    89.023426    7637.7194 
  267700     2243.953   0.33091712    14.626802  0.018963208         0.05    5.8820255 0.0078710329    89.608305    7636.8766 
  267800    2244.7325   0.33126454    14.632534  0.018963208         0.05    5.9855876 0.0077385431    88.688566    7636.0653 
  267900    2245.5032   0.33029703    14.637147  0.018963208         0.05    6.0650675 0.0076575925    88.104321    7635.2742 
  268000    2246.3185   0.33050519    14.641951  0.018963208         0.05    4.9880353 0.0084789621    89.025882    7634.4507 
  268100    2247.1683   0.33022654     14.64759  0.018963208         0.05    4.5973015 0.0088231828    88.376694    7633.6495 
  268200    2247.9565   0.33096407    14.652527  0.018963208         0.05    4.7390462 0.0074365072    89.679022    7632.8032 
  268300    2248.6923   0.33145317    14.657064  0.018963208         0.05    4.7680162 0.0073231291    88.535841     7631.996 
  268400     2249.422   0.32935741    14.661727  0.018963208         0.05    4.6891094 0.0072480546    88.649033    7631.1846 
  268500    2250.1333   0.33106435    14.666404  0.018963208         0.05    4.9087221 0.0070170648    90.603261    7630.3067 
  268600    2250.8332   0.33065128    14.671099  0.018963208         0.05    4.7534043 0.0069630242    87.923989    7629.5203 
  268700    2251.5215   0.33095372    14.675773  0.018963208         0.05    5.1881203  0.008012263    89.171943    7628.6902 
  268800    2252.3183   0.33103589     14.68064  0.018963208         0.05    5.1824531 0.0080793371    90.287578    7627.8222 
  268900    2253.1321   0.33120837    14.685339  0.018963208         0.05    5.3144298 0.0081985241    90.963416    7626.9317 
  269000    2253.9513   0.33037897    14.691005  0.018963208         0.05    5.5329535 0.0082514995    87.638424    7626.1544 
  269100    2254.7719   0.33170244    14.696278  0.018963208         0.05    5.6150115 0.0081505912    88.944401    7625.3312 
  269200    2255.5763   0.32992131    14.701671  0.018963208         0.05    5.8599108 0.0079583616    89.345139    7624.4942 
  269300    2256.3696   0.33088718    14.706697  0.018963208         0.05    5.9201072 0.0078801778    89.872852    7623.6391 
  269400     2257.162   0.33139915    14.711966  0.018963208         0.05    5.4481428 0.0088989333     89.69962    7622.7897 
  269500    2258.0459   0.32968631     14.71731  0.018963208         0.05    5.5410655 0.0087622732    89.027621    7621.9629 
  269600    2258.9132   0.33078059    14.722965  0.018963208         0.05    5.6004767 0.0086109076    90.116868    7621.0991 
  269700    2259.7703   0.33098616    14.728818  0.018963208         0.05    5.6731234 0.0084969491     89.82031     7620.245 
  269800    2260.6124   0.33039898    14.734444  0.018963208         0.05    5.7635277 0.0083593272    89.473847    7619.4024 
  269900     2261.444     0.330345    14.740161  0.018963208         0.05    5.8290085 0.0082825179    90.966908    7618.5099 
  270000    2262.2797   0.33055587     14.74492  0.018963208         0.05    5.7713219 0.0082894835    90.661406    7617.6274 
  270100    2263.1512   0.33107832    14.750848  0.018963208         0.05    5.3539413 0.0085909693    89.576193    7616.7807 
  270200    2264.0102    0.3301677     14.75605  0.018963208         0.05     5.205643 0.0086347762    90.699165    7615.8966 
  270300    2264.8691   0.33003996      14.7617  0.018963208         0.05    5.2893098 0.0085307758    89.863013    7615.0399 
  270400    2265.7138    0.3305677    14.767741  0.018963208         0.05    5.3728463 0.0082478322    90.060076    7614.1766 
  270500    2266.6108   0.33090233    14.774277  0.018963208         0.05    5.4654097 0.0090404606    90.241947     7613.307 
  270600    2267.5005   0.33074191    14.780345  0.018963208         0.05    5.7673098 0.0086681541    89.690279    7612.4556 
  270700    2268.3676   0.33046242    14.786624  0.018963208         0.05    5.8166541 0.0085382866    91.071948    7611.5584 
  270800    2269.1703   0.33100014    14.792155  0.018963208         0.05    6.6249457 0.0074671952      90.7881    7610.6703 
  270900    2269.9136   0.33095882    14.796875  0.018963208         0.05    6.6961195 0.0073880009    89.221186    7609.8341 
  271000    2270.6479   0.33048567    14.801605  0.018963208         0.05    6.7701204 0.0073021846    88.396847    7609.0259 
  271100    2271.3748   0.33177643     14.80682  0.018963208         0.05    6.8405807 0.0072280248    89.762412    7608.1711 
  271200    2272.0846   0.33143797    14.811574  0.018963208         0.05    7.0457546 0.0070452681    90.224709    7607.3008 
  271300    2272.7808   0.33204135    14.815877  0.018963208         0.05    7.2462245  0.006871887     89.74937    7606.4461 
  271400    2273.4421   0.33070986    14.820035  0.018963208         0.05    7.1114377 0.0065290489    90.778766    7605.5573 
  271500    2274.0903    0.3326679    14.823575  0.018963208         0.05    7.2145948 0.0065372469    89.953304    7604.6954 
  271600    2274.7456   0.33068687    14.828154  0.018963208         0.05    7.2340132 0.0065304626    90.083829     7603.829 
  271700     2275.396     0.330741     14.83237  0.018963208         0.05    7.3087618 0.0064748297    88.806098    7603.0053 
  271800    2276.0412   0.33065856    14.836188  0.018963208         0.05    7.3732805 0.0064240077    88.904452     7602.178 
  271900    2276.6814   0.33114157    14.839991  0.018963208         0.05     7.437296 0.0063743203    88.988087    7601.3477 
  272000    2277.3166   0.33022682    14.843472  0.018963208         0.05    7.5115858  0.006312244    88.794479    7600.5237 
  272100    2277.9463   0.33085839    14.847718  0.018963208         0.05     7.539814   0.00627737     88.75596    7599.7008 
  272200    2278.5677   0.33048098    14.851724  0.018963208         0.05    7.6139446 0.0062633211    90.194015    7598.8296 
  272300    2279.1932    0.3306635    14.855358  0.018963208         0.05    7.6590092 0.0062304478    89.205189    7597.9911 
  272400    2279.8143   0.33209454    14.858313  0.018963208         0.05    7.7151891 0.0061870526    89.237985    7597.1513 
  272500    2280.4375   0.33159386    14.862395  0.018963208         0.05     5.086252 0.0076548495    89.341866    7596.3078 
  272600    2281.2511   0.33179687    14.867316  0.018963208         0.05    5.1446079 0.0084713303    90.051975    7595.4406 
  272700    2282.0956   0.33111894    14.872276  0.018963208         0.05    5.2237686 0.0083970245    89.640191    7594.5868 
  272800    2282.9296   0.33112936    14.876946  0.018963208         0.05    5.3034896 0.0082767663    89.059322    7593.7521 
  272900    2283.7548   0.33122778    14.881718  0.018963208         0.05    5.4079454 0.0081435052    89.451445    7592.9042 
  273000    2284.6658   0.33106479    14.887091  0.018963208         0.05    4.8743891 0.0093527106    88.664118    7592.0825 
  273100    2285.5945   0.32969616    14.892761  0.018963208         0.05    5.0459782  0.009206661    88.875365    7591.2534 
  273200    2286.5036   0.33045472    14.898389  0.018963208         0.05    5.1500786 0.0087639334    89.357607     7590.408 
  273300    2287.4235   0.33191124    14.903977  0.018963208         0.05    5.2092421 0.0093305911    90.247578     7589.533 
  273400     2288.338   0.33128744    14.911417  0.018963208         0.05    5.2482434 0.0091378662    90.202065    7588.6594 
  273500     2289.248   0.33151502    14.917128  0.018963208         0.05    5.1533404 0.0094304762    89.831776    7587.7977 
  273600    2290.1697   0.33230487    14.923616  0.018963208         0.05    5.2472059 0.0091228062    90.348024    7586.9189 
  273700    2291.0861   0.33155294    14.928967  0.018963208         0.05    5.1780451 0.0091637316    90.320844    7586.0409 
  273800    2292.0001   0.33287435    14.935215  0.018963208         0.05    5.2569842  0.009089251    89.160589    7585.2009 
  273900    2292.8962   0.33095971    14.941963  0.018963208         0.05    5.3965737 0.0089017652    90.083597    7584.3302 
  274000    2293.7646   0.33035008    14.948894  0.018963208         0.05    5.4795453 0.0083167958    89.918592    7583.4648 
  274100    2294.6046    0.3311938    14.954142  0.018963208         0.05    5.5297305 0.0085743149     89.25821    7582.6209 
  274200    2295.4586    0.3310718    14.959553  0.018963208         0.05    5.3537985 0.0084919813    88.336099    7581.8078 
  274300    2296.3036   0.33193962    14.965042  0.018963208         0.05    5.3630407  0.008269996    88.585506    7580.9861 
  274400    2297.1619   0.33028639    14.971273  0.018963208         0.05    5.9699562 0.0083402166    89.711112    7580.1267 
  274500    2297.9989   0.33114786    14.977614  0.018963208         0.05    5.3385888 0.0084575149    89.374458    7579.2782 
  274600    2298.8369   0.33111498    14.983006  0.018963208         0.05    5.4191537 0.0080143675    88.797637    7578.4486 
  274700    2299.6485   0.33126102    14.988305  0.018963208         0.05     6.295012 0.0076727681    89.252398    7577.6038 
  274800    2300.4121     0.332242    14.993728  0.018963208         0.05    6.3262102 0.0076876184    90.046059    7576.7326 
  274900    2301.1791   0.33210879    14.999486  0.018963208         0.05    6.3633981 0.0076193474    89.079069    7575.8931 
  275000     2301.904   0.33117645    15.004009  0.018963208         0.05    5.8702295 0.0070652945    90.094472      7575.02 
  275100    2302.6207   0.33074697    15.008115  0.018963208         0.05    5.9244867 0.0083858824    88.664043     7574.194 
  275200    2303.4535    0.3304595    15.013428  0.018963208         0.05    5.9907577  0.008163603    88.720195    7573.3658 
  275300    2304.3051   0.33103091    15.019126  0.018963208         0.05    5.7046801 0.0085218013    88.986653    7572.5286 
  275400     2305.152   0.32925331    15.024507  0.018963208         0.05    5.7894248 0.0084036826    88.620282    7571.7033 
  275500    2305.9873   0.33052246    15.028785  0.018963208         0.05    5.6207214 0.0084981451    87.978137    7570.8995 
  275600    2306.8409   0.33137473    15.034379  0.018963208         0.05    5.1977153 0.0084044403     90.38338    7570.0159 
  275700    2307.6835   0.32956798    15.040316  0.018963208         0.05    5.3661806 0.0082384206    90.243927    7569.1367 
  275800    2308.5106   0.33040981    15.046531  0.018963208         0.05    5.5141492 0.0084196319    90.557232    7568.2473 
  275900    2309.3476   0.33052986    15.051573  0.018963208         0.05    5.5978523 0.0083107492     88.68549    7567.4188 
  276000    2310.1673   0.33221505    15.056889  0.018963208         0.05    5.9729135 0.0078078297    87.448213     7566.632 
  276100    2310.9666   0.33037902     15.06261  0.018963208         0.05    5.6146599 0.0081235296    90.989325    7565.7282 
  276200    2311.7751   0.33115017    15.068092  0.018963208         0.05    5.7022865 0.0080187174    88.614459    7564.9015 
  276300    2312.5555   0.33141984    15.073837  0.018963208         0.05    6.6604994 0.0073710038    89.912058    7564.0319 
  276400    2313.2995   0.33173482    15.078822  0.018963208         0.05    5.5738335 0.0074562106    89.824427     7563.165 
  276500    2314.0544   0.33024187    15.084103  0.018963208         0.05    5.2332609  0.007880053    90.636682    7562.2718 
  276600    2314.8027   0.33074823    15.088915  0.018963208         0.05     5.762556 0.0077117651     90.77358    7561.3741 
  276700    2315.5744   0.33157757    15.093502  0.018963208         0.05    5.8799272 0.0076787244    89.213955    7560.5266 
  276800    2316.3344   0.33071111    15.098578  0.018963208         0.05    6.2030175 0.0075522528    89.782472    7559.6603 
  276900    2317.0876   0.33132817    15.103269  0.018963208         0.05    6.3057578 0.0074544826    89.113779    7558.8157 
  277000    2317.8435   0.33187377    15.108538  0.018963208         0.05    5.7557135  0.008444452    90.533796     7557.925 
  277100    2318.6605   0.33195451    15.113798  0.018963208         0.05     5.853633 0.0083309666    91.465018    7557.0047 
  277200    2319.4862   0.33139234    15.118789  0.018963208         0.05    5.8873507  0.008245113     91.88027    7556.0715 
  277300    2320.3068   0.33132838    15.124373  0.018963208         0.05    5.8221628 0.0083211023    90.380127    7555.1852 
  277400    2321.1371   0.33081824    15.130332  0.018963208         0.05    5.7811847 0.0085944565     90.66315    7554.2898 
  277500    2321.9801   0.33178662    15.135771  0.018963208         0.05    5.9482041 0.0081306393    89.179015     7553.442 
  277600    2322.8186   0.33002134    15.141205  0.018963208         0.05    5.9488415 0.0083549051    89.425831    7552.5859 
  277700     2323.649   0.33084354    15.146195  0.018963208         0.05    6.0313134 0.0082418437    88.972174    7551.7445 
  277800     2324.463   0.33100061    15.151162  0.018963208         0.05    6.1676538  0.007845211    89.240055    7550.8941 
  277900    2325.2457    0.3310934    15.156444  0.018963208         0.05    5.8836542 0.0074862813    90.274791    7550.0102 
  278000    2325.9896   0.33223699    15.160867  0.018963208         0.05    5.9312558 0.0073987007    87.839489    7549.2058 
  278100    2326.7233    0.3317838    15.165585  0.018963208         0.05    6.2601616 0.0071756437     89.27567    7548.3537 
  278200    2327.4396   0.33002765    15.170584  0.018963208         0.05    6.3349499 0.0071305696    89.112265    7547.5067 
  278300    2328.1466   0.33270597    15.175497  0.018963208         0.05    6.5880941 0.0070180273    89.282454     7546.654 
  278400    2328.8468   0.33179657    15.180021  0.018963208         0.05    6.6539453 0.0069696767    89.299829    7545.8005 
  278500     2329.541   0.33157691    15.184197  0.018963208         0.05    6.7233616 0.0069076366    89.129099    7544.9523 
  278600     2330.229   0.33221034    15.187861  0.018963208         0.05    6.8250796 0.0068167037    89.253766       7544.1 
  278700    2330.9054   0.33172877    15.192409  0.018963208         0.05    6.9560633 0.0067721835    90.159931    7543.2182 
  278800      2331.58    0.3321097    15.196633  0.018963208         0.05    7.0364489 0.0066543841     90.73621    7542.3181 
  278900    2332.3231   0.33213809    15.201853  0.018963208         0.05    5.4288931 0.0078321014    91.626844    7541.3902 
  279000    2333.1174    0.3331102    15.206769  0.018963208         0.05    5.6635877 0.0077210198    90.995958    7540.4817 
  279100    2333.8901   0.33235739    15.211102  0.018963208         0.05    5.5957323 0.0077328428    90.360364     7539.593 
  279200    2334.6743     0.332128    15.216192  0.018963208         0.05     5.462585 0.0078506039    91.287189    7538.6751 
  279300    2335.4457   0.33110337    15.220533  0.018963208         0.05    5.6481904 0.0077002688    90.346875    7537.7866 
  279400    2336.2137   0.33196464    15.224796  0.018963208         0.05    5.5236147 0.0079122516    91.124322    7536.8735 
  279500    2337.0139   0.33049868    15.230493  0.018963208         0.05    5.5843657 0.0082028138    90.135227    7535.9914 
  279600    2337.8242   0.33135095    15.234909  0.018963208         0.05    5.7481942 0.0080325112    89.958398    7535.1147 
  279700    2338.6276   0.33043629    15.239757  0.018963208         0.05    5.4079028 0.0080267642    90.893476    7534.2084 
  279800    2339.4233   0.33115764     15.24511  0.018963208         0.05     5.424936 0.0079115133    90.626753    7533.3102 
  279900    2340.2114   0.33080807    15.250471  0.018963208         0.05    5.7174805 0.0077865287    90.140516    7532.4273 
  280000    2341.0006   0.33036339    15.255923  0.018963208         0.05    5.6136527 0.0078969999    89.855967    7531.5532 
  280100     2341.794   0.33092703     15.26129  0.018963208         0.05    5.6748846 0.0079714609    90.483992    7530.6591 
  280200     2342.587   0.33153657    15.266961  0.018963208         0.05    5.7402489 0.0078330913    89.192612    7529.8059 
  280300    2343.3696   0.33172535    15.272548  0.018963208         0.05    5.8181472 0.0078190348    89.721513    7528.9356 
  280400    2344.1477   0.33202662    15.277456  0.018963208         0.05    5.9916763 0.0077322122    89.290817    7528.0789 
  280500    2344.9157   0.33164406    15.282441  0.018963208         0.05    5.9134337  0.007972663    90.373915    7527.1876 
  280600    2345.7033   0.33168885     15.28775  0.018963208         0.05    5.9786193 0.0076758538    89.790295    7526.3146 
  280700    2346.5055   0.33146109     15.29277  0.018963208         0.05    5.5774839 0.0080581643    89.724085    7525.4435 
  280800    2347.3071   0.33045176    15.298836  0.018963208         0.05    5.6606098 0.0079622117    89.981865    7524.5641 
  280900    2348.0954   0.33038049    15.304404  0.018963208         0.05    5.7041614 0.0078564184    90.124033      7523.68 
  281000    2348.8747   0.33008177    15.309327  0.018963208         0.05    5.7204862 0.0086092278    88.972476    7522.8325 
  281100    2349.6948   0.32998499    15.314485  0.018963208         0.05    5.8703453 0.0081444541    89.842994     7521.957 
  281200    2350.5107   0.32964468     15.31975  0.018963208         0.05     5.741977 0.0083766953    90.234705    7521.0689 
  281300    2351.3396   0.33017233    15.325213  0.018963208         0.05    5.9539922 0.0081762764    89.293213    7520.2105 
  281400    2352.1727   0.33221338    15.330741  0.018963208         0.05    5.9470148 0.0082506848    89.086694    7519.3586 
  281500    2352.9899   0.33111513    15.336035  0.018963208         0.05    5.9286719 0.0082877524    89.832969    7518.4827 
  281600    2353.8036   0.33136563    15.340334  0.018963208         0.05    5.3494123 0.0077729159      89.9152     7517.604 
  281700    2354.6158   0.33058069    15.345444  0.018963208         0.05    5.4313968 0.0079803179    90.695145    7516.7007 
  281800    2355.4992   0.33015587    15.350541  0.018963208         0.05    5.4042396 0.0087510106    90.940005    7515.7898 
  281900    2356.3992   0.32936865    15.355996  0.018963208         0.05     5.318437 0.0091570394    90.415508     7514.895 
  282000    2357.3073   0.33024466    15.361597  0.018963208         0.05     5.380818 0.0090535198    89.733971    7514.0214 
  282100    2358.2087   0.33073064    15.367213  0.018963208         0.05     5.457247 0.0089370276    89.092825     7513.168 
  282200    2359.0984   0.33071014    15.372114  0.018963208         0.05    5.5006503 0.0088401085    89.135767    7512.3131 
  282300    2359.9765   0.33043962     15.37742  0.018963208         0.05    5.5803758 0.0087118354    89.316011    7511.4522 
  282400    2360.8408   0.33133051    15.383243  0.018963208         0.05    5.6559472 0.0085851689    89.571238     7510.583 
  282500     2361.683   0.33093901    15.388031  0.018963208         0.05    6.1033923 0.0080130292    89.352087    7509.7207 
  282600    2362.5192   0.33149542    15.392763  0.018963208         0.05     5.096384 0.0083340501    89.738809    7508.8459 
  282700    2363.4104   0.32927217    15.398472  0.018963208         0.05     4.913595 0.0094124342    89.523194    7507.9777 
  282800    2364.3251   0.33128375    15.403465  0.018963208         0.05    4.9868601 0.0090066611    89.892172    7507.0977 
  282900    2365.2449   0.33103071    15.409086  0.018963208         0.05    5.0780708 0.0093854756    90.266378    7506.2059 
  283000    2366.1786   0.33137152    15.414587  0.018963208         0.05    5.2087441  0.009418516    88.868756    7505.3581 
  283100    2367.1077   0.33130575    15.420596  0.018963208         0.05    4.9700201 0.0092513829    89.808771    7504.4802 
  283200    2368.0321    0.3307479    15.426063  0.018963208         0.05    5.0790195 0.0091993804    89.347538    7503.6167 
  283300    2368.9454   0.33224789    15.430781  0.018963208         0.05    5.2343401 0.0091625451    90.393762    7502.7203 
  283400    2369.8714   0.33009836    15.436245  0.018963208         0.05    5.3319155 0.0093446754    90.056673    7501.8342 
  283500    2370.7406   0.33125201    15.441108  0.018963208         0.05    5.6709044 0.0084154071    90.817115    7500.9245 
  283600    2371.5698   0.33091611    15.446163  0.018963208         0.05    5.7172449 0.0083531026    89.808444    7500.0458 
  283700    2372.4018   0.33152222    15.451708  0.018963208         0.05    5.7854786 0.0082644978    89.481139    7499.1773 
  283800     2373.224   0.33148181    15.456315  0.018963208         0.05    5.9569571 0.0080615394    88.580379    7498.3372 
  283900    2374.0361   0.33099878    15.461112  0.018963208         0.05    5.4187168 0.0080174671    90.085629    7497.4494 
  284000    2374.8796   0.33084802    15.466692  0.018963208         0.05    5.6817328 0.0086104116    89.451197    7496.5813 
  284100    2375.7216   0.33155794    15.472226  0.018963208         0.05    5.5496198 0.0079744206    90.093988    7495.6929 
  284200    2376.5122   0.33110261    15.477824  0.018963208         0.05    5.6858572 0.0076883465    88.997358    7494.8388 
  284300    2377.2916    0.3314103    15.482985  0.018963208         0.05    5.7608352 0.0080439495    90.495842    7493.9377 
  284400    2378.1095   0.33066249     15.48833  0.018963208         0.05    5.8519826  0.008266649    89.965692    7493.0528 
  284500    2378.9232   0.33007185    15.493418  0.018963208         0.05    6.3159682 0.0078348298    89.738329    7492.1748 
  284600    2379.7121   0.33120916    15.499184  0.018963208         0.05    6.2917074 0.0078551787    90.250588    7491.2808 
  284700    2380.4935   0.33204902    15.503625  0.018963208         0.05    6.3400361 0.0077859888    89.266512    7490.4173 
  284800    2381.2676   0.33112851    15.508397  0.018963208         0.05    6.4243667  0.007692572    89.199062    7489.5557 
  284900    2382.0318   0.33142099    15.513589  0.018963208         0.05    6.5002889 0.0074701944    89.357759     7488.689 
  285000    2382.7868   0.33060814    15.518736  0.018963208         0.05    6.3941257  0.007702662    91.092182    7487.7686 
  285100    2383.5535   0.33139454    15.524272  0.018963208         0.05    6.4682251 0.0076227246    88.056618     7486.943 
  285200       2384.3   0.33050459    15.529447  0.018963208         0.05    6.5675124 0.0074956413    90.454506    7486.0418 
  285300    2385.0406   0.33126645    15.533895  0.018963208         0.05    6.1809942 0.0073530261    90.186859    7485.1486 
  285400    2385.8125   0.33078252      15.5393  0.018963208         0.05    6.2497025 0.0078743081     88.89277    7484.2957 
  285500    2386.5941   0.33186521    15.544063  0.018963208         0.05    6.3218065 0.0078768312    90.403562    7483.3955 
  285600    2387.3772    0.3313797    15.549026  0.018963208         0.05    6.4110444 0.0077621959    89.026185     7482.538 
  285700    2388.1501   0.33104466    15.553794  0.018963208         0.05    6.4807655 0.0076771015    88.509759    7481.6967 
  285800    2388.9152   0.33026866    15.558598  0.018963208         0.05    6.4769001   0.00764276     90.77079    7480.7849 
  285900    2389.6782    0.3314927    15.563248  0.018963208         0.05    6.5217188 0.0075864299    90.073944    7479.8942 
  286000    2390.4135   0.33043504    15.568054  0.018963208         0.05    5.8463262 0.0071685714     88.54956    7479.0511 
  286100    2391.1234   0.33113932    15.572725  0.018963208         0.05    6.1362721 0.0070288514    89.591136     7478.175 
  286200    2391.8856   0.33086316    15.577265  0.018963208         0.05     6.000981 0.0083238285    90.823467     7477.261 
  286300    2392.7074    0.3314565    15.581474  0.018963208         0.05    5.4921783 0.0081409609    91.312011    7476.3322 
  286400    2393.5193   0.33157694    15.586299  0.018963208         0.05    5.5714552 0.0080596887    89.213709    7475.4674 
  286500    2394.3255   0.33045988     15.59059  0.018963208         0.05    5.1625906 0.0081207465    89.559839    7474.5917 
  286600    2395.1405    0.3302403    15.595092  0.018963208         0.05    5.7893721 0.0082151938    90.729537      7473.68 
  286700    2395.9572   0.33032658    15.599824  0.018963208         0.05    6.0609636 0.0079233451    89.084386    7472.8187 
  286800     2396.744   0.32980814    15.604111  0.018963208         0.05    5.5275386 0.0088967856    90.457062     7471.915 
  286900    2397.6412   0.33072237    15.609264  0.018963208         0.05    4.9396165  0.009473273    90.210523    7471.0186 
  287000    2398.5813   0.33119757    15.615251  0.018963208         0.05    4.9801695  0.009601287    89.764602    7470.1357 
  287100    2399.5123    0.3304614    15.620442  0.018963208         0.05    5.0304998 0.0095594009       89.015     7469.276 
  287200    2400.4553    0.3308952    15.625725  0.018963208         0.05    4.9668951 0.0093838754    90.074853    7468.3833 
  287300    2401.3406   0.33130495    15.630815  0.018963208         0.05     5.055127 0.0088928475    92.395564    7467.4212 
  287400    2402.2298   0.33037687    15.635594  0.018963208         0.05    5.2281344 0.0089033428    91.653474    7466.4808 
  287500    2403.1135   0.33142043    15.641122  0.018963208         0.05    5.1873666 0.0088376723    90.684282    7465.5692 
  287600    2403.9607   0.32984491    15.645426  0.018963208         0.05    5.1822615 0.0082901584    90.277472    7464.6698 
  287700    2404.7867   0.33101691    15.650393  0.018963208         0.05    5.5319516 0.0082114655    88.864161    7463.8138 
  287800    2405.5958   0.33146594    15.655056  0.018963208         0.05    5.6722175 0.0087038826      88.9266    7462.9557 
  287900    2406.3985    0.3312954    15.660055  0.018963208         0.05    5.7855945 0.0081502999    91.340208    7462.0239 
  288000     2407.219   0.33086047    15.665163  0.018963208         0.05    5.8783962 0.0081900035    88.848707    7461.1679 
  288100    2408.0357   0.33099417    15.670348  0.018963208         0.05    5.9788742 0.0083133083     89.55829    7460.2897 
  288200    2408.8636   0.33146575    15.675559  0.018963208         0.05    6.0638079 0.0082212409    89.076004    7459.4263 
  288300    2409.6801   0.33242438    15.680074  0.018963208         0.05    6.1499395 0.0081075301    89.793928    7458.5405 
  288400    2410.5121   0.33183249    15.685164  0.018963208         0.05    5.9458093 0.0080524926    90.799303    7457.6241 
  288500     2411.329   0.33002947    15.690788  0.018963208         0.05    5.3383149  0.008717306    88.904056    7456.7655 
  288600    2412.2045   0.33169779    15.696055  0.018963208         0.05     5.423748 0.0087222603     88.92281    7455.9061 
  288700    2413.0667   0.33151403     15.70171  0.018963208         0.05    5.4470327  0.008509708    89.125671    7455.0403 
  288800    2413.8997   0.33083235    15.707855  0.018963208         0.05     5.688944 0.0080936586    91.267861    7454.1094 
  288900    2414.7055   0.32998537     15.71392  0.018963208         0.05    5.4476582 0.0080165378    89.561675    7453.2297 
  289000    2415.5076   0.33073708    15.718473  0.018963208         0.05    5.4189388 0.0092200787    90.158245    7452.3318 
  289100     2416.423   0.33128266    15.724127  0.018963208         0.05    5.5180297 0.0090547204    88.993148    7451.4694 
  289200    2417.3222   0.33125349     15.73075  0.018963208         0.05    5.6044359 0.0089155804    88.852791    7450.6111 
  289300    2418.2009   0.33011815     15.73717  0.018963208         0.05    5.7443407 0.0086832013    89.858488    7449.7218 
  289400    2419.0752   0.33109268    15.743231  0.018963208         0.05    5.6956819 0.0087257557    90.629788     7448.809 
  289500     2419.938   0.33140873    15.749542  0.018963208         0.05    5.8757771 0.0084051319    88.977157    7447.9464 
  289600    2420.7699   0.33165199    15.754564  0.018963208         0.05    5.9775878 0.0082543268    88.853262    7447.0875 
  289700    2421.5897   0.33278634      15.7593  0.018963208         0.05    6.0747806 0.0081169128    89.256463    7446.2159 
  289800    2422.3973   0.32996857    15.764776  0.018963208         0.05    6.1499454  0.008016683    89.991268    7445.3217 
  289900    2423.1944   0.33252305    15.769437  0.018963208         0.05    6.2236462 0.0079195484    88.983009    7444.4582 
  290000    2423.9805   0.33158366    15.774684  0.018963208         0.05    5.7072524 0.0081211471    88.371238    7443.6136 
  290100    2424.7973   0.33242466    15.780211  0.018963208         0.05    5.7262939 0.0081233237    87.986959    7442.7809 
  290200    2425.6022   0.33137403    15.785255  0.018963208         0.05    5.8312952 0.0079311477     89.05346    7441.9147 
  290300    2426.3968    0.3311836    15.790267  0.018963208         0.05     5.910247 0.0078218236    90.254413    7441.0117 
  290400    2427.1862    0.3312006    15.795069  0.018963208         0.05    5.7360439 0.0079795556    89.431685    7440.1336 
  290500      2427.98   0.33013174     15.80089  0.018963208         0.05    5.8186875   0.00788222    88.216635    7439.2929 
  290600    2428.7551   0.33138581    15.805571  0.018963208         0.05    5.6958387 0.0083335489    89.886912    7438.4005 
  290700    2429.5572   0.33099165    15.810692  0.018963208         0.05    5.7759924 0.0078917372    89.805617    7437.5105 
  290800    2430.3457   0.33057894    15.815794  0.018963208         0.05    5.8528045 0.0081302395    91.772856    7436.5621 
  290900    2431.1525   0.33008824    15.820872  0.018963208         0.05    5.9406233 0.0080243279    89.898626     7435.669 
  291000    2431.9477    0.3321693    15.824969  0.018963208         0.05    6.1130841  0.007900131     87.82963    7434.8396 
  291100    2432.7335   0.33243354    15.829766  0.018963208         0.05    6.1922199 0.0078056907    89.098276    7433.9705 
  291200    2433.5098   0.33160703    15.834852  0.018963208         0.05    6.2647721 0.0076944877    90.108118    7433.0706 
  291300    2434.3043   0.33123102    15.839168  0.018963208         0.05    4.6477758 0.0083190466    88.718149    7432.2128 
  291400    2435.1198   0.33220609    15.844656  0.018963208         0.05    4.9407639 0.0079922331    89.375106    7431.3347 
  291500    2435.9163   0.33099964    15.849483  0.018963208         0.05    4.8050139 0.0079309064    87.927454    7430.5013 
  291600    2436.7023   0.33288084    15.854438  0.018963208         0.05    4.8205721 0.0076648373    88.724455    7429.6428 
  291700    2437.5798   0.33105668    15.860181  0.018963208         0.05    4.7913365 0.0091040008    90.702618    7428.7244 
  291800    2438.4852   0.33154367    15.865833  0.018963208         0.05    4.7675323   0.00900597    88.454806    7427.8739 
  291900    2439.3829   0.33260799    15.871364  0.018963208         0.05    5.1785705 0.0089209622    88.458929    7427.0231 
  292000    2440.2619   0.33186285     15.87638  0.018963208         0.05    5.3351201 0.0086432113    86.871398    7426.2221 
  292100    2441.1392   0.33217062    15.881934  0.018963208         0.05     4.753798 0.0086064597    90.505996     7425.309 
  292200    2441.9984   0.33172935    15.887516  0.018963208         0.05    4.8397152 0.0084414349    90.581365    7424.3934 
  292300    2442.9082   0.33176354    15.893556  0.018963208         0.05     4.923857 0.0093384109     89.22054    7423.5185 
  292400    2443.8162   0.33185456    15.899262  0.018963208         0.05    5.1590588 0.0092120092    89.020006    7422.6495 
  292500    2444.7185   0.33140704    15.905023  0.018963208         0.05    5.5136635  0.008959185    90.605472    7421.7328 
  292600    2445.5979   0.33161248    15.911195  0.018963208         0.05    5.7524128 0.0084422296    89.751157    7420.8414 
  292700    2446.4466   0.33215686    15.917326  0.018963208         0.05    5.7359575 0.0086364394    91.239113    7419.9059 
  292800    2447.3059   0.33170396    15.923533  0.018963208         0.05     5.784424 0.0085731059    90.593006    7418.9892 
  292900    2448.1528   0.33046219     15.92921  0.018963208         0.05    5.9294149 0.0084015547     89.31236    7418.1106 
  293000    2448.9808   0.33056813    15.934892  0.018963208         0.05    6.0913502 0.0081467175     90.06143    7417.2093 
  293100    2449.8129   0.32935312    15.940179  0.018963208         0.05    5.5535993 0.0083366993    89.732954    7416.3177 
  293200    2450.6418    0.3307358    15.945993  0.018963208         0.05    5.6101823 0.0082296695    89.289297    7415.4393 
  293300    2451.4602   0.33039693    15.950734  0.018963208         0.05    5.7836324 0.0081131269    89.290247    7414.5607 
  293400    2452.2689   0.33179848    15.955416  0.018963208         0.05    5.9657163 0.0080918366    89.668171    7413.6706 
  293500    2453.0735   0.33006532    15.961028  0.018963208         0.05    5.9806093 0.0079972487    89.168682    7412.7954 
  293600    2453.8644   0.33063611    15.966502  0.018963208         0.05    6.1379405 0.0078912152    89.354409    7411.9143 
  293700    2454.6526   0.33168383    15.971493  0.018963208         0.05    6.0095378 0.0081783988    90.131741    7411.0099 
  293800    2455.4658   0.33151498    15.976445  0.018963208         0.05    6.0441411 0.0081238481    89.882963    7410.1128 
  293900    2456.2763   0.33218678    15.981503  0.018963208         0.05    6.0993032 0.0080495435    89.879708    7409.2156 
  294000     2457.079   0.33079501    15.986675  0.018963208         0.05    6.0519309 0.0080333214    89.885217    7408.3181 
  294100    2457.8778   0.32959605    15.991939  0.018963208         0.05    6.1342422 0.0079332813    85.833593    7407.5465 
  294200    2458.6668   0.33081666    15.996606  0.018963208         0.05    6.2131423 0.0078377507    88.096105    7406.7028 
  294300    2459.4457   0.32940357    16.002466  0.018963208         0.05    6.2834333 0.0077332456    88.586291    7405.8439 
  294400     2460.211   0.33034263    16.007067  0.018963208         0.05    6.3276347 0.0075924076    88.910614    7404.9749 
  294500    2460.9638   0.33069721    16.011791  0.018963208         0.05    6.5046739 0.0075933586    89.603577    7404.0849 
  294600    2461.7372   0.33001109    16.016587  0.018963208         0.05    5.2112403 0.0088901492    90.334383    7403.1732 
  294700    2462.6589   0.33019666    16.022535  0.018963208         0.05    5.2965263 0.0093567596    88.514466    7402.3157 
  294800    2463.5871   0.33108686    16.027575  0.018963208         0.05    5.3948859 0.0091891186    88.801341    7401.4494 
  294900    2464.4975   0.33078234    16.033011  0.018963208         0.05    5.5105131 0.0090044526    89.086789    7400.5743 
  295000    2465.3871   0.33161124    16.038779  0.018963208         0.05    5.8079908  0.008518321    88.347729    7399.7214 
  295100    2466.2658   0.33043956    16.044635  0.018963208         0.05    5.2036246 0.0087105354    89.202078    7398.8425 
  295200    2467.1308   0.33080045    16.050107  0.018963208         0.05    5.1674541  0.008654988     89.64638    7397.9501 
  295300    2467.9935   0.33139003    16.055563  0.018963208         0.05    5.2439102  0.008576837     88.21541    7397.1007 
  295400    2468.8231   0.33135119    16.060505  0.018963208         0.05    4.7834373 0.0081657741    90.016684    7396.1971 
  295500    2469.6373   0.33003612    16.066062  0.018963208         0.05    4.8651137 0.0079167716    88.973514    7395.3243 
  295600    2470.4406   0.33104407    16.071258  0.018963208         0.05    4.9460822 0.0080404342    89.713127    7394.4294 
  295700    2471.2434   0.33115605    16.076492  0.018963208         0.05    5.1593416 0.0079928374    88.180469    7393.5804 
  295800    2472.0808   0.33098549    16.082153  0.018963208         0.05    5.1231766 0.0093568484    90.400386    7392.6649 
  295900    2472.9939   0.33063329    16.087542  0.018963208         0.05    5.3871378 0.0086928959    89.488833    7391.7761 
  296000    2473.8569   0.33164881    16.093196  0.018963208         0.05     5.174295 0.0084975062    88.350148    7390.9214 
  296100    2474.7193   0.33198695    16.098317  0.018963208         0.05    5.2620451 0.0087994585    90.087003    7390.0147 
  296200    2475.5928   0.33098398    16.103946  0.018963208         0.05    5.4698969 0.0086231615    88.869923    7389.1439 
  296300    2476.4597   0.33158324    16.109362  0.018963208         0.05    5.0967083  0.008656271    91.431262    7388.1981 
  296400    2477.3205   0.33201238    16.114798  0.018963208         0.05    4.9620402 0.0085490298    89.255418    7387.3155 
  296500    2478.1654   0.33069931    16.120064  0.018963208         0.05    5.4894175 0.0080193037    88.444305    7386.4571 
  296600    2478.9858   0.33039434    16.124596  0.018963208         0.05    5.0964202 0.0084157079    91.270522    7385.5154 
  296700    2479.7649   0.33189621    16.129592  0.018963208         0.05    5.1138665 0.0074419368     90.01566    7384.6099 
  296800    2480.5065   0.33235783    16.134172  0.018963208         0.05      4.88962 0.0074745356    90.947439    7383.6773 
  296900    2481.2544   0.33007466    16.139025  0.018963208         0.05    5.2291057 0.0075220159    90.219818    7382.7656 
  297000    2482.1219   0.33181434    16.144784  0.018963208         0.05     5.201438  0.009053281    88.709105    7381.8984 
  297100    2483.0256   0.33114504    16.150372  0.018963208         0.05    5.3668019 0.0090813067    89.506211    7381.0073 
  297200    2483.8962   0.33241055    16.156021  0.018963208         0.05     5.802352 0.0085809433    90.059496    7380.0998 
  297300    2484.7471   0.33143476    16.161708  0.018963208         0.05    5.8974762 0.0084376996     88.59052    7379.2357 
  297400    2485.6189   0.33067726    16.166917  0.018963208         0.05    5.4728276  0.009033354    89.344588    7378.3489 
  297500    2486.5147   0.33177252    16.171453  0.018963208         0.05    5.4368577 0.0089474649    89.964611    7377.4437 
  297600    2487.3774   0.33138361    16.176686  0.018963208         0.05    5.5370442 0.0084530848    89.195325    7376.5611 
  297700    2488.2134   0.33087162    16.181736  0.018963208         0.05    5.5402508 0.0083420057    89.442956    7375.6709 
  297800    2489.0446   0.33082955    16.187345  0.018963208         0.05     5.634338 0.0082630709    89.011543    7374.7934 
  297900    2489.8828    0.3322262    16.192671  0.018963208         0.05    5.6391997 0.0085265535    89.910998    7373.8892 
  298000    2490.7112   0.33066269    16.197851  0.018963208         0.05    5.7216467 0.0081251297    87.209277     7373.066 
  298100    2491.5189   0.33109351    16.202656  0.018963208         0.05    5.7941132 0.0080176961    89.132584    7372.1844 
  298200    2492.3168   0.33070188    16.207672  0.018963208         0.05    6.0627495 0.0079291897     88.83465    7371.3114 
  298300    2493.0948   0.33352209    16.212211  0.018963208         0.05    5.9805716 0.0081471299    89.347385    7370.4231 
  298400    2493.9129   0.33173864    16.217667  0.018963208         0.05    6.1858243 0.0080088361     90.55993    7369.4994 
  298500    2494.7028   0.33229139    16.222817  0.018963208         0.05    6.3393385 0.0078536146    89.034122    7368.6201 
  298600     2495.477   0.33199303     16.22742  0.018963208         0.05     6.564088 0.0076028697    88.599297    7367.7535 
  298700    2496.2363   0.33080947    16.232854  0.018963208         0.05    6.5845578 0.0075768782    90.163361    7366.8408 
  298800    2496.9898   0.33111777    16.237478  0.018963208         0.05    6.6848334 0.0074664322    88.673866    7365.9717 
  298900    2497.7337   0.33130619    16.241443  0.018963208         0.05    6.6085514 0.0075341645    89.966656    7365.0644 
  299000    2498.4919   0.33101037    16.246021  0.018963208         0.05    6.3405599 0.0073969315    90.002275    7364.1559 
  299100    2499.2289   0.33078261    16.250294  0.018963208         0.05    6.5200596 0.0073019651    89.009786    7363.2764 
  299200     2499.948   0.33042212    16.255116  0.018963208         0.05    6.5754146 0.0071429649    90.749207    7362.3462 
  299300    2500.6567   0.32996989    16.259819  0.018963208         0.05    6.6977086 0.0070834024    90.121012    7361.4339 
  299400    2501.3602   0.33142213    16.263959  0.018963208         0.05    6.8197841 0.0070533714    89.238308    7360.5471 
  299500    2502.0707   0.33127315    16.269062  0.018963208         0.05    6.8427862  0.007086438     89.72779    7359.6459 
  299600    2502.7756   0.33068194    16.273881  0.018963208         0.05    6.6789634 0.0070006924    88.541093    7358.7795 
  299700    2503.4723   0.33215313    16.278601  0.018963208         0.05    6.7490028 0.0069766554    88.169273     7357.924 
  299800    2504.1666   0.33103112    16.283443  0.018963208         0.05    6.8188394  0.006863351    86.324701     7357.125 
  299900    2504.8539   0.33052528    16.288094  0.018963208         0.05    6.8888242 0.0067386269    86.893211     7356.308 
  300000    2505.5634   0.33127745    16.292124  0.018963208         0.05     6.974434 0.0070852545    85.516643     7355.534 
  300100    2506.2556   0.33141415     16.29633  0.018963208         0.05    7.1487677 0.0069926457    87.709898    7354.6915 
  300200    2507.0349   0.33142341    16.301557  0.018963208         0.05     5.748512 0.0080363542    87.857098    7353.8444 
  300300    2507.8405   0.33090976    16.306728  0.018963208         0.05    5.9314186   0.00818589    87.556867    7353.0062 
  300400    2508.6545   0.33035074     16.31226  0.018963208         0.05    5.9423466 0.0079887805    87.268176    7352.1766 
  300500    2509.4542   0.33169603    16.317336  0.018963208         0.05    6.0217238 0.0081007091    87.072896    7351.3528 
  300600    2510.2598   0.33146199    16.322102  0.018963208         0.05    5.9761956 0.0081045253    86.891699    7350.5343 
  300700    2511.0674   0.33190001    16.327536  0.018963208         0.05    6.0388271 0.0080015852    87.009567     7349.712 
  300800    2511.8669   0.33138605    16.332579  0.018963208         0.05    5.3645093 0.0080768126    88.177113    7348.8541 
  300900    2512.6709   0.33176588    16.337277  0.018963208         0.05    5.4455641 0.0080113211    88.899477    7347.9746 
  301000    2513.4646   0.32940951    16.342992  0.018963208         0.05    5.5615903 0.0078477668    88.223723    7347.1149 
  301100    2514.2306   0.33126379    16.347389  0.018963208         0.05    5.5826198 0.0079679309    89.806425    7346.2087 
  301200    2515.0278   0.33125746    16.352677  0.018963208         0.05    5.6638935 0.0079554539    89.546359    7345.3099 
  301300    2515.8316   0.33144151    16.358079  0.018963208         0.05    5.7341124 0.0085143803    89.661021    7344.4076 
  301400    2516.6734   0.33047369    16.364275  0.018963208         0.05    5.0200457 0.0088289395    88.770762     7343.531 
  301500    2517.5946   0.32929206    16.370782  0.018963208         0.05    5.1080751 0.0092673711      88.6638    7342.6575 
  301600    2518.4933   0.33053298    16.376656  0.018963208         0.05     5.143056 0.0092424672    90.537724    7341.7297 
  301700    2519.4107   0.33065564    16.382927  0.018963208         0.05    5.1557855 0.0090941556    88.062885    7340.8737 
  301800    2520.3473   0.33046756    16.389316  0.018963208         0.05     5.249335 0.0092860693    87.315665      7340.04 
  301900    2521.2719   0.33151242    16.394945  0.018963208         0.05    5.2062506 0.0091900748     87.12866    7339.2117 
  302000    2522.1821   0.32978033    16.401521  0.018963208         0.05    5.3241022 0.0092681421    86.843321     7338.392 
  302100    2523.1006   0.33100287    16.407678  0.018963208         0.05    4.7992765 0.0092062788     86.61549     7337.579 
  302200    2524.0267   0.33013206    16.413438  0.018963208         0.05    5.0428247 0.0091531762    89.513317    7336.6795 
  302300    2524.8772   0.33077611    16.418441  0.018963208         0.05    5.1530143 0.0075455305    90.266165    7335.7583 
  302400    2525.6195   0.33247324    16.422493  0.018963208         0.05    5.4765021 0.0073836149    88.950871    7334.8748 
  302500    2526.3549   0.33145945    16.426393  0.018963208         0.05    5.5500472 0.0073191793    88.116982    7334.0157 
  302600     2527.084   0.33126554    16.430659  0.018963208         0.05    5.6252511 0.0072520542    89.071786    7333.1284 
  302700    2527.8101   0.33327787    16.434678  0.018963208         0.05    5.2845928 0.0073480087    89.547716    7332.2271 
  302800    2528.5421    0.3311516     16.43991  0.018963208         0.05    5.3627595 0.0072767102    88.494483    7331.3564 
  302900    2529.3919    0.3318707     16.44491  0.018963208         0.05    5.1938596 0.0090145316    89.991982    7330.4421 
  303000    2530.2805     0.330966    16.450212  0.018963208         0.05    5.1936413 0.0086623488    87.801941    7329.5915 
  303100    2531.1358   0.33026754    16.455843  0.018963208         0.05    5.3040132 0.0086081137    89.436243    7328.6929 
  303200    2531.9922   0.33131311    16.460697  0.018963208         0.05    5.4275614 0.0084205129    88.186383    7327.8305 
  303300    2532.8175   0.33149885     16.46588  0.018963208         0.05    5.5130449 0.0082727362    90.768158    7326.8939 
  303400    2533.6261   0.33118219    16.470538  0.018963208         0.05    5.5874231 0.0078085425    90.054218    7325.9772 
  303500     2534.415   0.33102462    16.475602  0.018963208         0.05    5.6704487 0.0078851572    91.394146     7325.023 
  303600    2535.2011   0.33126222    16.480633  0.018963208         0.05    5.7476767 0.0078242883    88.878699    7324.1398 
  303700     2535.979   0.33096759    16.485847  0.018963208         0.05    5.8277276 0.0075999701    89.766293    7323.2309 
  303800    2536.7373   0.33141896    16.490848  0.018963208         0.05    5.9026883 0.0076708682    91.348464    7322.2777 
  303900    2537.5253    0.3318142    16.496081  0.018963208         0.05    6.0943621 0.0079835426    89.461614    7321.3772 
  304000    2538.3312   0.33175485    16.501384  0.018963208         0.05    6.0908176 0.0080289062    88.548308     7320.503 
  304100      2539.13    0.3313328    16.506808  0.018963208         0.05    6.1674011 0.0079371872    89.643889     7319.597 
  304200    2539.9212   0.33219406    16.512213  0.018963208         0.05    6.2256491  0.007875344    89.027054    7318.7086 
  304300    2540.7043   0.33177268    16.517494  0.018963208         0.05     6.318878 0.0077684014    88.769579    7317.8275 
  304400    2541.4769   0.33050824    16.522833  0.018963208         0.05    6.4039288 0.0076851083    89.119573    7316.9361 
  304500    2542.2414   0.33082738    16.527862  0.018963208         0.05    6.4831062 0.0075931044    88.919794    7316.0503 
  304600     2543.005   0.33072299    16.532134  0.018963208         0.05    6.3527255  0.007702557    91.005889    7315.1055 
  304700    2543.7708   0.33128025    16.536077  0.018963208         0.05    6.4458145 0.0075726445    88.245143     7314.239 
  304800    2544.5244   0.33159407    16.541013  0.018963208         0.05    6.4668021 0.0077054039    89.392249    7313.3392 
  304900    2545.2995   0.33023898    16.545852  0.018963208         0.05    6.4241227 0.0077545395    90.520763    7312.4075 
  305000    2546.0722   0.33083404    16.551218  0.018963208         0.05      6.55812 0.0075661584    89.687057    7311.4991 
  305100    2546.9381   0.33040616      16.5572  0.018963208         0.05    5.3629422 0.0087782806    89.389792    7310.5989 
  305200    2547.8019   0.33082132    16.562354  0.018963208         0.05    5.4440361 0.0085551734    90.480556    7309.6679 
  305300     2548.653   0.33199033    16.567477  0.018963208         0.05    5.4026478 0.0086487988     89.94229    7308.7519 
  305400    2549.5131   0.33042406    16.572084  0.018963208         0.05    5.5942932 0.0083428099    87.981071    7307.8921 
  305500    2550.3586   0.32966999    16.577439  0.018963208         0.05    5.5237697 0.0085228033    91.347071    7306.9369 
  305600    2551.2006   0.33056436    16.583007  0.018963208         0.05    5.2332387 0.0081941832     89.66196    7306.0283 
  305700    2552.0687   0.33080455    16.588244  0.018963208         0.05    4.7556203 0.0087126138    90.051878    7305.1087 
  305800    2552.9418   0.33104155     16.59341  0.018963208         0.05    4.8915795 0.0087026531    89.997273    7304.1905 
  305900    2553.8076   0.33084513    16.599118  0.018963208         0.05    5.0876375 0.0086126533    88.811363    7303.3058 
  306000    2554.6596   0.33153586    16.604736  0.018963208         0.05    5.0651168 0.0088715417    88.212423    7302.4382 
  306100     2555.548   0.33128057    16.610236  0.018963208         0.05    5.2944077 0.0091708293    88.853996     7301.552 
  306200    2556.4534   0.32947318    16.615576  0.018963208         0.05    5.3710695 0.0090463601    90.741294    7300.6125 
  306300    2557.3486   0.33044359    16.621508  0.018963208         0.05    5.4796088 0.0088760249    89.406007    7299.7103 
  306400    2558.2297   0.33100037    16.627064  0.018963208         0.05    5.5774863 0.0087398612     89.39827    7298.8081 
  306500    2559.0981   0.33240095    16.632975  0.018963208         0.05    5.6511829 0.0086304141    89.323601    7297.9079 
  306600    2559.9555   0.33182435    16.638714  0.018963208         0.05    5.7358506 0.0085091667     88.61532    7297.0277 
  306700     2560.801    0.3309011    16.643937  0.018963208         0.05    5.8204076 0.0083912545    89.006216    7296.1362 
  306800    2561.6306   0.33112257    16.648779  0.018963208         0.05    5.9033676 0.0082786293     89.31506    7295.2358 
  306900    2562.4516   0.33077405    16.654751  0.018963208         0.05    5.9873765 0.0081677676    89.206309    7294.3383 
  307000    2563.2643   0.33095478     16.65963  0.018963208         0.05    6.0629421  0.008074023     88.06638    7293.4735 
  307100    2564.0667    0.3310945    16.664601  0.018963208         0.05    6.1693437 0.0079379359    88.973986    7292.5823 
  307200    2564.8568   0.33100954    16.669336  0.018963208         0.05    6.2637517   0.00781635    89.213955    7291.6841 
  307300    2565.6911   0.33170923    16.674713  0.018963208         0.05    5.5885596 0.0085728077    90.110944    7290.7607 
  307400     2566.549   0.33114474    16.680503  0.018963208         0.05    5.6756649 0.0085509622    90.830567    7289.8173 
  307500    2567.3963   0.33126221    16.685549  0.018963208         0.05    5.7639839 0.0083824877    88.500197    7288.9391 
  307600    2568.2301   0.33178938    16.690959  0.018963208         0.05    5.8433202 0.0082642509    88.743979    7288.0538 
  307700    2569.0565    0.3306978    16.696007  0.018963208         0.05    5.6715177 0.0082257006    90.204509    7287.1272 
  307800    2569.8745   0.33030049     16.70111  0.018963208         0.05    5.5653027 0.0081198234    88.887476    7286.2375 
  307900    2570.6825   0.33129649    16.706049  0.018963208         0.05    5.7292303 0.0078728481     89.24427    7285.3375 
  308000    2571.5442   0.33040955    16.711676  0.018963208         0.05    5.7127456 0.0086583178    89.769597    7284.4226 
  308100    2572.4025   0.33133825    16.716724  0.018963208         0.05    5.7985741 0.0082647235    88.145648    7283.5537 
  308200    2573.2267   0.33169124     16.72189  0.018963208         0.05    5.8728487 0.0080336084    89.565997    7282.6442 
  308300    2574.0586   0.33090402    16.727695  0.018963208         0.05    5.9571899 0.0083494662    90.653862    7281.7046 
  308400    2574.8929   0.33131261    16.733415  0.018963208         0.05    5.9452747 0.0083702705    89.417767     7280.799 
  308500    2575.7247   0.33239472     16.73816  0.018963208         0.05    6.0361381 0.0082454129    88.453146    7279.9206 
  308600    2576.5487   0.33198035    16.743647  0.018963208         0.05    5.9315723  0.008276094     90.28645    7278.9907 
  308700    2577.3718   0.33129108    16.748843  0.018963208         0.05    6.0096224 0.0081723119    88.620806    7278.1072 
  308800    2578.1843   0.33102891    16.754503  0.018963208         0.05    6.0836546 0.0080703151    88.363196    7277.2309 
  308900    2578.9828   0.32997715    16.760405  0.018963208         0.05    6.2584848 0.0078511745    89.093128    7276.3338 
  309000     2579.774   0.32922716    16.766283  0.018963208         0.05    6.2383164 0.0077903402    88.397481    7275.4562 
  309100    2580.5731   0.33122035    16.771545  0.018963208         0.05    5.8041386 0.0080774727    90.441497    7274.5213 
  309200    2581.3809   0.33134031    16.777198  0.018963208         0.05    5.8611165 0.0080458014    89.868751    7273.6021 
  309300    2582.1763   0.33062878    16.782826  0.018963208         0.05     5.940451 0.0077902692    89.930565     7272.681 
  309400    2582.9593   0.33149416    16.788039  0.018963208         0.05    6.0297536 0.0078508777    90.048959    7271.7566 
  309500    2583.7388   0.33093305    16.793943  0.018963208         0.05    6.2566637 0.0076240877    88.466597    7270.8763 
  309600    2584.5101   0.32952571    16.799546  0.018963208         0.05     6.258638  0.007682716    89.168379    7269.9761 
  309700     2585.267    0.3296894    16.804756  0.018963208         0.05    6.5147031 0.0075257901    89.891112    7269.0555 
  309800    2586.0164   0.33132518     16.81004  0.018963208         0.05    6.5876315 0.0074516496    89.012317    7268.1594 
  309900    2586.7547   0.32976211    16.815729  0.018963208         0.05    6.7600562 0.0073223058    89.166692    7267.2588 
  310000    2587.4846   0.33224234    16.820464  0.018963208         0.05    6.8041755 0.0072679076    87.498545    7266.4056 
  310100    2588.2041   0.33114085    16.825481  0.018963208         0.05    6.9583657 0.0071296536     88.78307    7265.5154 
  310200    2588.9139   0.33097793    16.830486  0.018963208         0.05    7.0358966 0.0070521892    89.599232    7264.6023 
  310300    2589.6147   0.33185573     16.83534  0.018963208         0.05    7.1222989  0.006959565    88.750194    7263.7127 
  310400    2590.3069   0.32994982    16.840679  0.018963208         0.05    7.3455375 0.0067558854    88.895219     7262.819 
  310500    2590.9813   0.32895639    16.845694  0.018963208         0.05    7.4015782 0.0066993908    88.631892    7261.9325 
  310600    2591.6546   0.33150648    16.850218  0.018963208         0.05    7.3132832 0.0067970865     90.77688    7260.9867 
  310700     2592.335   0.33048758    16.855489  0.018963208         0.05    7.2550139 0.0068839822    89.248277    7260.0826 
  310800    2593.0305   0.33051307    16.860509  0.018963208         0.05    7.1006758 0.0064920381    90.359371    7259.1478 
  310900    2593.9062   0.33111041    16.866768  0.018963208         0.05    5.0646102 0.0091993617    90.230881    7258.2165 
  311000    2594.7107   0.33057777    16.872166  0.018963208         0.05    4.8811462 0.0077980741    90.629455    7257.2742 
  311100    2595.5282   0.33227028    16.876867  0.018963208         0.05    4.9628976 0.0082892867    90.970873    7256.3226 
  311200    2596.3589   0.33131623    16.881927  0.018963208         0.05    5.1070636 0.0083139181    92.132855    7255.3403 
  311300    2597.1858   0.33039705    16.886677  0.018963208         0.05    4.9628877 0.0082254663    91.129469    7254.3843 
  311400    2598.0152   0.33097626    16.890895  0.018963208         0.05    4.7788956 0.0087097696    90.426385    7253.4471 
  311500    2598.8694   0.33009092    16.897006  0.018963208         0.05    5.3524042 0.0086002393    91.047474    7252.4931 
  311600    2599.7387   0.33050336    16.902295  0.018963208         0.05    4.9168994  0.009395093    90.595961    7251.5512 
  311700    2600.6638   0.33219908    16.909057  0.018963208         0.05    4.9406319 0.0093717559     90.09422    7250.6227 
  311800    2601.6058    0.3304331    16.915829  0.018963208         0.05    5.0301984 0.0094358049    91.486464    7249.6568 
  311900    2602.5097    0.3307536    16.922194  0.018963208         0.05    5.1342365 0.0089661978    90.502735     7248.717 
  312000    2603.4013   0.33089786    16.928049  0.018963208         0.05    5.0444723 0.0096727765    88.620263    7247.8289 
  312100    2604.3574   0.33011507    16.934411  0.018963208         0.05    5.1130054 0.0093790685    90.621075    7246.8857 
  312200    2605.2727   0.33168256    16.940065  0.018963208         0.05    5.2794957 0.0091697378    91.781431    7245.9117 
  312300    2606.1836   0.33127727    16.945695  0.018963208         0.05    5.3137837 0.0089716133    89.479631    7244.9993 
  312400    2607.0641   0.33208342    16.951295  0.018963208         0.05    5.4392001 0.0087254253    89.338993    7244.0906 
  312500    2607.9493   0.32986289    16.957177  0.018963208         0.05    4.7572267 0.0096447421      88.8629    7243.1951 
  312600    2608.8847    0.3304805    16.962805  0.018963208         0.05    4.8541684 0.0093136629    89.221338    7242.2894 
  312700    2609.8091   0.33003792    16.968085  0.018963208         0.05    4.9713455 0.0091767203    89.301426    7241.3814 
  312800    2610.7022   0.33118341    16.973187  0.018963208         0.05    5.2647936 0.0076875803    87.102858    7240.5353 
  312900    2611.4839   0.33095856    16.977682  0.018963208         0.05    4.7868779 0.0077671672    87.703993    7239.6718 
  313000    2612.2763   0.33064061     16.98274  0.018963208         0.05    5.5383197 0.0080880944    89.207978    7238.7659 
  313100    2613.0793   0.33218344    16.987273  0.018963208         0.05    5.7016165 0.0080263092    90.165959    7237.8337 
  313200    2613.8799   0.33183629    16.992404  0.018963208         0.05    5.7693815 0.0079522233    89.627817    7236.9161 
  313300    2614.6657   0.33102769    16.997216  0.018963208         0.05    5.5959456 0.0080431587    90.022442    7235.9875 
  313400    2615.4725   0.33028434    17.001838  0.018963208         0.05    5.6167595 0.0080295349     89.57933    7235.0709 
  313500    2616.2713   0.33138079    17.006156  0.018963208         0.05    5.6988637 0.0079381257     89.73543      7234.15 
  313600    2617.0611   0.33140217    17.010991  0.018963208         0.05    5.7825339 0.0078417027     88.83433    7233.2536 
  313700     2617.834   0.33002511    17.016523  0.018963208         0.05    5.7298786 0.0077176074    90.449357    7232.3131 
  313800    2618.6021   0.33096538    17.021192  0.018963208         0.05    5.8090927 0.0076347205    88.326277    7231.4307 
  313900    2619.3575   0.33006576    17.026248  0.018963208         0.05    6.4538533 0.0072974331    89.595863     7230.513 
  314000    2620.1882   0.33061543      17.0319  0.018963208         0.05    5.7465805 0.0083599632    88.941384    7229.6131 
  314100     2621.019   0.33008793    17.036833  0.018963208         0.05    5.8296538 0.0082498033    89.845477    7228.6883 
  314200    2621.8429    0.3317472    17.041879  0.018963208         0.05    5.6925879  0.008412133    90.481454    7227.7464 
  314300    2622.6493   0.33080802    17.047185  0.018963208         0.05    5.7624062  0.007987667    90.179607    7226.8125 
  314400    2623.4396   0.33140805    17.052344  0.018963208         0.05    6.0794319 0.0077693193    89.186733    7225.9053 
  314500    2624.2104   0.33043071    17.058079  0.018963208         0.05    5.6832832 0.0076143092    90.233172    7224.9697 
  314600    2624.9772   0.33048427    17.063203  0.018963208         0.05    5.6269594 0.0077157225    90.533874    7224.0259 
  314700    2625.7454   0.33094663    17.068144  0.018963208         0.05    5.7024188 0.0076387138    86.428246    7223.1963 
  314800    2626.4987   0.33114781    17.072705  0.018963208         0.05    6.0540965 0.0075807171    87.295693    7222.3415 
  314900    2627.2645   0.33030054    17.077892  0.018963208         0.05    5.5237259 0.0079328628    87.690754    7221.4753 
  315000    2628.0574   0.33100743    17.082876  0.018963208         0.05    5.4632693 0.0079094284    86.062515    7220.6558 
  315100    2628.8455   0.33049658    17.087576  0.018963208         0.05    5.5397696 0.0078457346      88.6206    7219.7631 
  315200     2629.632   0.33074549    17.092686  0.018963208         0.05    5.3677004 0.0085268398    89.228341    7218.8537 
  315300    2630.4796   0.32960936    17.098431  0.018963208         0.05    5.4589159 0.0083923753    88.647928      7217.96 
  315400    2631.3137    0.3303508    17.104594  0.018963208         0.05    5.5764226 0.0082116661    89.827889     7217.034 
  315500    2632.1266   0.33009459    17.110106  0.018963208         0.05    5.2438873 0.0086156505    89.932185    7216.1051 
  315600    2632.9399   0.33223605    17.115232  0.018963208         0.05    5.3275528 0.0081108106    90.116229    7215.1712 
  315700    2633.7506   0.33154719    17.120383  0.018963208         0.05     5.276555 0.0081041795    88.986181    7214.2677 
  315800    2634.5608    0.3316542    17.125936  0.018963208         0.05    5.4065407 0.0080951868    89.734393    7213.3437 
  315900    2635.3766   0.33089619     17.13128  0.018963208         0.05    5.4563606 0.0084042268    90.734385     7212.393 
  316000    2636.2092   0.32992183     17.13658  0.018963208         0.05    5.5244839 0.0081435919    88.765878    7211.4952 
  316100    2637.0683   0.33102249    17.141615  0.018963208         0.05    5.4827958 0.0086592655    90.927861    7210.5392 
  316200    2637.9265   0.33020853    17.147954  0.018963208         0.05    5.6205309 0.0085692186    89.315764    7209.6261 
  316300    2638.7806   0.32876149    17.154074  0.018963208         0.05    5.4764542 0.0085231355    90.692105    7208.6761 
  316400     2639.629   0.33111967    17.159012  0.018963208         0.05    5.5612862 0.0084336016    88.642101    7207.7812 
  316500    2640.4635   0.33154586    17.164126  0.018963208         0.05    5.6467215 0.0082740756    90.541574    7206.8349 
  316600    2641.2832   0.32973443     17.16982  0.018963208         0.05    4.9815541 0.0080271882    91.604871    7205.8609 
  316700    2642.1075   0.33003631    17.174563  0.018963208         0.05    5.0777789 0.0085043821    89.461996    7204.9432 
  316800    2642.9533    0.3310713    17.179807  0.018963208         0.05    5.1801422  0.008385253     89.56835    7204.0226 
  316900    2643.7917   0.33000168    17.185008  0.018963208         0.05    5.2641483 0.0084653982    90.382484    7203.0801 
  317000    2644.6246   0.33076884    17.190431  0.018963208         0.05    5.3443763 0.0081840489    89.404654    7202.1636 
  317100    2645.4338   0.33146229    17.195525  0.018963208         0.05    5.4419372 0.0079326954    89.552535    7201.2431 
  317200    2646.2332   0.33138935    17.200607  0.018963208         0.05    5.5154755 0.0083042747    89.537528    7200.3227 
  317300    2647.0812   0.33041771    17.206251  0.018963208         0.05    5.1141044 0.0086869831    90.623639    7199.3735 
  317400    2647.8803   0.32965174    17.210891  0.018963208         0.05    5.2415425 0.0076914492    90.111602    7198.4376 
  317500    2648.6457   0.33064342    17.216096  0.018963208         0.05     5.295748 0.0075563286    89.060514    7197.5298 
  317600    2649.3935    0.3308059    17.221089  0.018963208         0.05     6.076648 0.0082195347    89.573304    7196.6081 
  317700    2650.1552   0.33060436    17.226544  0.018963208         0.05     5.860614 0.0075360044    90.144913     7195.671 
  317800    2650.9006   0.33116962    17.230985  0.018963208         0.05    5.6879156 0.0077038042    90.733305    7194.7184 
  317900     2651.692    0.3316594    17.235754  0.018963208         0.05    5.6229657 0.0079117295    90.800561    7193.7639 
  318000    2652.5295   0.33016131    17.241073  0.018963208         0.05    5.4299715 0.0083612669    89.209079    7192.8515 
  318100    2653.3672   0.33065105    17.246549  0.018963208         0.05    5.5068395 0.0084270298    91.204017    7191.8863 
  318200    2654.2054   0.32941381    17.252273  0.018963208         0.05    5.9157446 0.0083273484     88.69785    7190.9875 
  318300    2655.0331   0.33056215    17.258052  0.018963208         0.05    6.0000998  0.008230761    89.744781    7190.0604 
  318400    2655.8481   0.33018079    17.263639  0.018963208         0.05    6.1776104 0.0080803589    89.057583    7189.1515 
  318500    2656.6594   0.33045123    17.268351  0.018963208         0.05    6.0827293 0.0081274043    90.507969     7188.204 
  318600    2657.4708   0.33047845    17.273956  0.018963208         0.05    6.1096287 0.0080816303    90.670794    7187.2522 
  318700    2658.2731   0.33108823    17.278852  0.018963208         0.05    6.2692447 0.0078641772    89.020649     7186.344 
  318800    2659.0408   0.33070242    17.284384  0.018963208         0.05    6.4725634 0.0075934235      89.8261    7185.4141 
  318900    2659.7974    0.3310469    17.289614  0.018963208         0.05    6.5366376 0.0075212131    89.491143     7184.493 
  319000    2660.5445   0.33134652    17.295016  0.018963208         0.05    6.7211585 0.0072623993    88.349999    7183.6026 
  319100    2661.2814   0.33151099    17.299042  0.018963208         0.05    6.5407049 0.0074330135    90.431688    7182.6565 
  319200    2662.0211   0.33058717    17.303999  0.018963208         0.05    6.6146791 0.0073543501    88.821556     7181.753 
  319300    2662.7519   0.33141036    17.308372  0.018963208         0.05    6.7392468 0.0072469004    89.273675    7180.8372 
  319400     2663.469   0.33068302    17.312727  0.018963208         0.05    6.7452592 0.0071718999    89.776438    7179.9079 
  319500    2664.1767   0.33019043     17.31683  0.018963208         0.05    6.8942609 0.0069721814     91.80166    7178.9262 
  319600    2664.9255   0.32958124     17.32202  0.018963208         0.05    5.5110544 0.0082917706    90.574695    7177.9758 
  319700    2665.7496   0.32988919    17.327265  0.018963208         0.05    5.5933216 0.0081839154    89.923373    7177.0423 
  319800    2666.5599   0.33019064     17.33273  0.018963208         0.05    5.6455231 0.0079218181     89.78547    7176.1123 
  319900    2667.3961    0.3311517    17.337253  0.018963208         0.05    6.0207404 0.0082028856    90.659937    7175.1594 
  320000    2668.2414   0.33064509    17.342207  0.018963208         0.05    5.8212186 0.0083677593    90.359702    7174.2142 
  320100    2669.0688   0.33085806    17.348135  0.018963208         0.05    5.9201784 0.0082130156    89.308518    7173.2966 
  320200    2669.8838   0.33051128    17.353141  0.018963208         0.05    6.0433278 0.0080578743    89.438875    7172.3753 
  320300     2670.642   0.33223764    17.358016  0.018963208         0.05    6.1011181 0.0071529663    89.687709    7171.4474 
  320400    2671.4183   0.33090911    17.362307  0.018963208         0.05    6.1042335 0.0076783839    89.547411    7170.5231 
  320500     2672.195    0.3311687    17.367332  0.018963208         0.05    6.0866963 0.0077410645    90.707875    7169.5683 
  320600    2672.9652   0.33218164     17.37199  0.018963208         0.05    6.1637173 0.0076549843    89.678063    7168.6403 
  320700    2673.7267    0.3307999    17.376928  0.018963208         0.05    6.2342402 0.0075644296    89.409933    7167.7192 
  320800    2674.4868   0.33144532    17.381291  0.018963208         0.05    6.1036868 0.0077095028     90.98749     7166.757 
  320900    2675.2549   0.33106106    17.386277  0.018963208         0.05     6.054572 0.0079509842    90.707306    7165.8018 
  321000    2676.0394   0.33174735    17.390633  0.018963208         0.05    6.1807887 0.0078154563    89.899609    7164.8675 
  321100     2676.818   0.33045577    17.396072  0.018963208         0.05    6.2453766  0.007750425    88.996868     7163.957 
  321200    2677.5857   0.33027357    17.400371  0.018963208         0.05    6.4608587 0.0076061279    89.342037    7163.0372 
  321300    2678.3446   0.33214482    17.404858  0.018963208         0.05    6.5038679 0.0075619904    90.191494    7162.0949 
  321400     2679.097   0.33178849    17.409771  0.018963208         0.05    6.5859258 0.0074705483    88.598361    7161.1947 
  321500    2679.8331   0.33080654    17.414889  0.018963208         0.05    6.7650166 0.0072969307    88.865517    7160.2871 
  321600    2680.5517   0.33034522    17.419099  0.018963208         0.05    6.7524585 0.0071928466    91.154959    7159.3198 
  321700    2681.3161    0.3308719    17.423211  0.018963208         0.05    6.0058197 0.0079372526    90.388775    7158.3721 
  321800    2682.1351   0.33142947    17.428474  0.018963208         0.05    5.2922666 0.0093224117    91.563436    7157.3943 
  321900    2683.0538   0.33138687    17.433959  0.018963208         0.05    5.3430108 0.0092488578    90.388872    7156.4463 
  322000    2683.9375   0.33081124    17.439467  0.018963208         0.05    4.9603781 0.0091324273    90.029417    7155.5076 
  322100    2684.8686   0.33114591    17.445655  0.018963208         0.05    4.7439855 0.0092988953    90.179044    7154.5648 
  322200    2685.7548   0.33164916    17.451632  0.018963208         0.05    4.8386063 0.0084544738    89.506841    7153.6395 
  322300    2686.6523   0.33221698    17.456917  0.018963208         0.05    5.1521797 0.0089391072    89.954925    7152.7023 
  322400    2687.5192   0.33154918    17.463015  0.018963208         0.05    5.2396625 0.0083881491    89.363185    7151.7806 
  322500    2688.4169   0.33242582    17.468479  0.018963208         0.05    5.3272287 0.0089940036     90.22599    7150.8362 
  322600      2689.31   0.33115258    17.474594  0.018963208         0.05    5.1249854 0.0088640922    90.006099    7149.8974 
  322700    2690.1902   0.33163243    17.480855  0.018963208         0.05    5.2103487 0.0086885962    89.136316    7148.9812 
  322800    2691.0469    0.3315537    17.486331  0.018963208         0.05    4.9920789 0.0088152761    90.697283    7148.0244 
  322900    2691.9088   0.33241779    17.491497  0.018963208         0.05    5.0206192 0.0084618394     89.96382    7147.0864 
  323000    2692.7698   0.33040195    17.496714  0.018963208         0.05    5.1340695 0.0090165515    90.532545    7146.1336 
  323100    2693.6669   0.33133436    17.502212  0.018963208         0.05    4.9595522 0.0079453025     89.56112    7145.2058 
  323200    2694.5631   0.33192361    17.507465  0.018963208         0.05    5.0605014 0.0092165581    91.305769    7144.2333 
  323300    2695.4794   0.33183501    17.513733  0.018963208         0.05    4.9991608 0.0091507984    89.638985    7143.3033 
  323400    2696.3918   0.33111385    17.519213  0.018963208         0.05    5.0890273 0.0086985441    89.763469    7142.3699 
  323500    2697.2861   0.33198661    17.523792  0.018963208         0.05    5.1752862 0.0093817736     91.24878    7141.3985 
  323600    2698.2078    0.3315817     17.52966  0.018963208         0.05    5.3569492  0.008422006    89.974511    7140.4595 
  323700    2699.0989   0.33154885    17.535771  0.018963208         0.05    5.3241915 0.0091018924    91.343311    7139.4855 
  323800    2700.0046   0.33125382    17.542347  0.018963208         0.05    5.3943296 0.0089764658    89.223805    7138.5658 
  323900    2700.8955   0.33193659    17.548748  0.018963208         0.05    5.4903388 0.0088335138    89.868096    7137.6292 
  324000    2701.7574   0.33245206    17.554403  0.018963208         0.05    5.7246877 0.0086186722    89.591844    7136.6997 
  324100     2702.612   0.33309052    17.559776  0.018963208         0.05    5.3923344  0.008508388    89.897181    7135.7621 
  324200     2703.457   0.33147431     17.56519  0.018963208         0.05    5.4760043 0.0083302485    88.871109    7134.8512 
  324300    2704.2851   0.33080313    17.571059  0.018963208         0.05    5.5628229 0.0082576912    90.746242    7133.8917 
  324400    2705.0908   0.33040631    17.576434  0.018963208         0.05    6.5970918 0.0074421658    89.899204    7132.9538 
  324500    2705.8442   0.33128716    17.581597  0.018963208         0.05    6.4240525 0.0075384916    90.037438    7132.0122 
  324600    2706.5922   0.33077025    17.586958  0.018963208         0.05    6.5483482 0.0073541808    88.852565    7131.1013 
  324700    2707.3775     0.331633    17.591704  0.018963208         0.05    5.9186481 0.0079211562    88.349515    7130.2036 
  324800    2708.1654   0.33183028    17.596817  0.018963208         0.05    5.9974444 0.0078294403    88.763511    7129.2948 
  324900    2708.9444   0.33145961    17.602176  0.018963208         0.05    6.0740882 0.0077408796    89.015019    7128.3792 
  325000    2709.7148   0.33057729    17.607454  0.018963208         0.05    6.1477442 0.0076572666    87.202749     7127.512 
  325100    2710.4767   0.33051509    17.611971  0.018963208         0.05      6.22394 0.0075739973    89.429511    7126.5853 
  325200    2711.2305   0.33088754    17.616876  0.018963208         0.05    6.2993147 0.0074932803    88.154263    7125.6921 
  325300    2711.9753    0.3316843    17.621433  0.018963208         0.05    6.3250456 0.0074163811    88.851379    7124.7803 
  325400     2712.713   0.33099067    17.626164  0.018963208         0.05    5.6019558 0.0080617571    89.367032    7123.8549 
  325500    2713.5159   0.33080782    17.631627  0.018963208         0.05    5.5348083 0.0079899046    88.634084    7122.9486 
  325600    2714.3141   0.33195382     17.63677  0.018963208         0.05    5.1532985 0.0079569219    89.757591    7122.0128 
  325700    2715.1058    0.3312599     17.64207  0.018963208         0.05     5.243809 0.0078415614    88.645885    7121.1059 
  325800     2715.961   0.33155269    17.647078  0.018963208         0.05    4.9357256 0.0090523825     89.84692    7120.1676 
  325900    2716.8786   0.33094183    17.652775  0.018963208         0.05    4.9995602  0.009356575    89.399471    7119.2408 
  326000     2717.803   0.33058208    17.657903  0.018963208         0.05    5.1124077 0.0092178199    89.728193    7118.3054 
  326100     2718.705   0.33076848    17.663068  0.018963208         0.05    5.2282084 0.0089245412    88.998756    7117.3887 
  326200    2719.5932   0.33138509    17.668244  0.018963208         0.05    5.2551309 0.0087672628    87.885908    7116.5013 
  326300    2720.4642   0.33088913    17.673302  0.018963208         0.05    5.1580373  0.008704584    89.274549    7115.5772 
  326400    2721.3319   0.33072695    17.678167  0.018963208         0.05    5.1882741 0.0086746348    89.277817    7114.6529 
  326500    2722.2018   0.33129222    17.683259  0.018963208         0.05    5.3372728 0.0088854586    89.036106    7113.7347 
  326600    2723.1048   0.33161502    17.688136  0.018963208         0.05    5.2085382 0.0086157113    90.173112    7112.7872 
  326700     2723.976   0.33246755    17.693085  0.018963208         0.05    5.2928417 0.0092616417     89.34809    7111.8607 
  326800    2724.8916   0.33169993    17.697698  0.018963208         0.05    5.3251491 0.0089326307    89.836855    7110.9216 
  326900    2725.7876   0.33054323    17.703076  0.018963208         0.05    5.4653587 0.0086923984    90.373253    7109.9687 
  327000    2726.6749   0.33200965    17.708251  0.018963208         0.05    5.4701044 0.0089172604     88.97225    7109.0517 
  327100    2727.5693   0.33145744    17.712989  0.018963208         0.05    5.0224791 0.0091386764    88.605904     7108.144 
  327200    2728.4711   0.33086463    17.718151  0.018963208         0.05    4.8580968 0.0091844943    90.050331     7107.199 
  327300    2729.3748   0.33052907    17.723402  0.018963208         0.05    5.2580906 0.0090419615    89.907278    7106.2575 
  327400    2730.2702   0.33046173    17.728329  0.018963208         0.05    5.5250782 0.0089448849     88.91608    7105.3414 
  327500    2731.1848   0.33087482    17.733442  0.018963208         0.05    5.3305001 0.0092024584    91.523296    7104.3594 
  327600    2732.0958   0.33225838    17.739271  0.018963208         0.05    5.0108238 0.0090416556    90.652628    7103.3988 
  327700    2732.9869   0.33086236    17.744761  0.018963208         0.05    5.1395361 0.0086904356    88.486642    7102.4936 
  327800    2733.8422   0.33005687    17.750143  0.018963208         0.05    5.1489935 0.0087506183     90.37964    7101.5397 
  327900    2734.7115   0.33164261    17.755494  0.018963208         0.05     5.227338  0.008660099    89.047505    7100.6196 
  328000    2735.5392   0.33096831     17.76047  0.018963208         0.05    6.1321266 0.0080613297    89.034746    7099.6997 
  328100    2736.3256   0.33061457    17.765135  0.018963208         0.05    6.1328861 0.0078022415     89.83774    7098.7591 
  328200    2737.1188   0.33139316    17.769879  0.018963208         0.05    6.0848345 0.0078970032    89.882636    7097.8173 
  328300    2737.9329   0.33070859    17.775306  0.018963208         0.05    5.0037138 0.0088301815    90.506328    7096.8597 
  328400    2738.8061   0.33102027    17.781079  0.018963208         0.05     5.079737 0.0088189305    89.767023    7095.9206 
  328500    2739.7142   0.33095098    17.786518  0.018963208         0.05    5.1739205 0.0091294778    91.332451    7094.9424 
  328600    2740.6294   0.32977228    17.792752  0.018963208         0.05    5.4272247 0.0090256833    90.580289    7093.9827 
  328700    2741.5221   0.32998835    17.798171  0.018963208         0.05    5.7052719 0.0085996425    88.742157    7093.0696 
  328800    2742.4383   0.33070144    17.803747  0.018963208         0.05    5.0126265 0.0091523363    89.752117    7092.1305 
  328900    2743.3251   0.33077122    17.809352  0.018963208         0.05     5.108084 0.0087613054    90.060715    7091.1835 
  329000    2744.1664   0.33077876    17.814269  0.018963208         0.05    5.6416432 0.0077968338    89.606448    7090.2479 
  329100    2744.9447   0.33061377    17.818929  0.018963208         0.05    5.3051438 0.0079402821    89.154543    7089.3237 
  329200    2745.8079    0.3308001    17.823559  0.018963208         0.05    5.4179439 0.0092006283    91.668357    7088.3367 
  329300    2746.7233     0.330754    17.828125  0.018963208         0.05     5.491286 0.0090745694    88.583841     7087.427 
  329400    2747.6317   0.33033943    17.834063  0.018963208         0.05    5.3868006 0.0091285535    89.400423    7086.4962 
  329500    2748.5345   0.33060025     17.84012  0.018963208         0.05    5.4646531  0.008974825    88.807263    7085.5804 
  329600    2749.4203   0.33080055    17.845165  0.018963208         0.05    5.6257361 0.0087758693    90.745083    7084.6157 
  329700    2750.3145   0.32979751    17.851302  0.018963208         0.05    5.4692419 0.0089221344    90.904961    7083.6469 
  329800    2751.2014   0.33088041    17.856742  0.018963208         0.05    5.5438451 0.0088033482    88.664662    7082.7345 
  329900    2752.0709   0.33113506    17.862313  0.018963208         0.05    5.6222775 0.0087201941    90.365426    7081.7788 
  330000    2752.9366   0.33166518     17.86777  0.018963208         0.05    5.6805892 0.0085997549      88.1465    7080.8797 
  330100    2753.7779   0.33078912    17.873299  0.018963208         0.05    5.7314262  0.008512403    88.638879    7079.9676 
  330200     2754.644   0.33113612    17.878694  0.018963208         0.05    5.2168679 0.0087045903    89.541064    7079.0323 
  330300    2755.5184   0.33020825    17.884655  0.018963208         0.05    5.3369748 0.0087902021    90.413637     7078.075 
  330400    2756.3942   0.32940019    17.891029  0.018963208         0.05    5.3704195 0.0086433767    89.954095    7077.1291 
  330500    2757.2214   0.33104489    17.896431  0.018963208         0.05    6.0345813 0.0081161539    89.637222    7076.1911 
  330600    2758.0284    0.3306908    17.901885  0.018963208         0.05    6.1152768 0.0080133082    89.412258    7075.2587 
  330700    2758.8254   0.33061898    17.907675  0.018963208         0.05    6.1915423 0.0079205168    89.340268    7074.3279 
  330800    2759.6133   0.33091103    17.912563  0.018963208         0.05    6.2644145 0.0078301156     88.70329    7073.4133 
  330900    2760.3923   0.33001921    17.917445  0.018963208         0.05    6.3393287 0.0077397096    89.239732    7072.4849 
  331000    2761.2074   0.33018427    17.922908  0.018963208         0.05    5.2015212 0.0083300097    88.675047    7071.5708 
  331100    2762.0358   0.32912871    17.928974  0.018963208         0.05    5.2845473 0.0082332996    88.907222    7070.6506 
  331200    2762.8572   0.33197072    17.935026  0.018963208         0.05    5.2574888 0.0082653776    89.468961     7069.716 
  331300    2763.6832   0.33221857    17.940724  0.018963208         0.05     5.099864 0.0082507309    89.919653      7068.77 
  331400    2764.5036   0.33077066    17.947392  0.018963208         0.05    5.1976264 0.0081553755    88.419675    7067.8619 
  331500    2765.3103   0.33070206    17.953351  0.018963208         0.05    5.1963073 0.0079906742    89.379315    7066.9293 
  331600    2766.1479   0.33218643    17.959246  0.018963208         0.05    5.2770176 0.0088351006    90.543548    7065.9675 
  331700      2767.03   0.33227169    17.966273  0.018963208         0.05    5.4139368 0.0088473105    91.279937    7064.9877 
  331800     2767.903   0.33073039    17.971884  0.018963208         0.05    5.3744587 0.0086720057    89.523672    7064.0511 
  331900    2768.7661   0.33059452     17.97704  0.018963208         0.05    5.5481621 0.0085813367    88.435242    7063.1421 
  332000     2769.619    0.3296681     17.98322  0.018963208         0.05    5.5065103 0.0084732505    88.370363    7062.2346 
  332100    2770.4623   0.32996556    17.988527  0.018963208         0.05     5.618593  0.008370208    88.730124    7061.3177 
  332200    2771.2801   0.32997611    17.993715  0.018963208         0.05    5.7096601  0.007956276    89.847825    7060.3725 
  332300    2772.0595    0.3303798    17.998586  0.018963208         0.05    5.8561792 0.0076238495    90.398749    7059.4136 
  332400    2772.8222   0.33038787    18.003761  0.018963208         0.05    5.4762413   0.00762458    90.294925    7058.4572 
  332500    2773.5835   0.33029472    18.008235  0.018963208         0.05    5.5520247 0.0076281283     89.15659    7057.5291 
  332600    2774.3439   0.33087128    18.013413  0.018963208         0.05    5.7543763 0.0075677913    88.871599     7056.608 
  332700    2775.0928   0.33061875    18.018084  0.018963208         0.05    5.4857253 0.0074837279     90.38003    7055.6492 
  332800    2775.8526   0.33100539    18.022623  0.018963208         0.05    5.5628202 0.0086928297    89.543625     7054.711 
  332900    2776.7056   0.32999773    18.027777  0.018963208         0.05    5.6055101 0.0085493397    89.347785    7053.7776 
  333000    2777.5531   0.33029096    18.033081  0.018963208         0.05     5.685759 0.0082865623    88.114742    7052.8755 
  333100    2778.3735   0.33059804    18.039308  0.018963208         0.05    5.7461469 0.0083920717    89.206859    7051.9454 
  333200    2779.1997   0.33030139    18.045087  0.018963208         0.05    5.7846004   0.00823673    89.896449     7050.998 
  333300     2780.012   0.33027919    18.050671  0.018963208         0.05    5.8768946 0.0082348638    89.097878    7050.0704 
  333400    2780.8462   0.33080348    18.056411  0.018963208         0.05    5.9583966 0.0083280787     89.30095    7049.1376 
  333500    2781.6728   0.33100212    18.062493  0.018963208         0.05    6.2051515 0.0079877843     88.97091     7048.213 
  333600    2782.5526   0.33115327    18.068056  0.018963208         0.05     5.334462 0.0089074973    90.338644    7047.2543 
  333700    2783.4377   0.33066154    18.073794  0.018963208         0.05    5.4220932 0.0087789365    88.832034     7046.333 
  333800     2784.309   0.33048631     18.07938  0.018963208         0.05    5.6321541 0.0086726716    89.233998    7045.4014 
  333900    2785.1707   0.33000096    18.084657  0.018963208         0.05    5.5712379  0.008550725    88.502699    7044.4882 
  334000    2786.0198    0.3304198    18.090343  0.018963208         0.05    5.6579376  0.008426863    87.785751    7043.5933 
  334100    2786.8573   0.33161495    18.095938  0.018963208         0.05    5.7496801 0.0083262105    87.198416    7042.7135 
  334200    2787.6835   0.33077132    18.101129  0.018963208         0.05    5.4732374 0.0088727523     89.84232    7041.7663 
  334300    2788.5669   0.33023085    18.106551  0.018963208         0.05    5.2663713 0.0088364137    89.476653    7040.8281 
  334400    2789.4313   0.33005438    18.111491  0.018963208         0.05    5.3563831 0.0084381473    89.384515     7039.892 
  334500    2790.2972   0.32958723    18.117201  0.018963208         0.05    5.3865455 0.0087541259    90.005287    7038.9406 
  334600    2791.1697    0.3306241    18.122811  0.018963208         0.05    5.5012061 0.0086202701     88.17969    7038.0347 
  334700    2792.0339   0.33035729    18.128516  0.018963208         0.05    5.3180237 0.0086430783    90.965724    7037.0597 
  334800    2792.8896   0.33075123    18.134167  0.018963208         0.05    5.5605389 0.0083395914    89.646552    7036.1167 
  334900    2793.7713   0.32940291    18.140487  0.018963208         0.05    5.3353289 0.0083881431    89.561426    7035.1758 
  335000    2794.6268   0.33182288    18.146223  0.018963208         0.05    5.2225064 0.0087669437     89.17911    7034.2442 
  335100    2795.4995   0.33070919     18.15106  0.018963208         0.05    5.0614296 0.0087466602    89.870984    7033.2954 
  335200    2796.3306   0.33141651     18.15645  0.018963208         0.05    5.2092046 0.0080552513    89.838703    7032.3473 
  335300     2797.135   0.33001852    18.161704  0.018963208         0.05    5.2281067 0.0080109107    89.202571    7031.4148 
  335400    2797.9323    0.3313042    18.166814  0.018963208         0.05    5.3078314 0.0079259151    88.110614    7030.5098 
  335500    2798.7236   0.33094765    18.172202  0.018963208         0.05     5.443723 0.0082499961    89.866324    7029.5607 
  335600    2799.5446   0.33185348    18.178022  0.018963208         0.05    5.3209777  0.008165112    89.281086    7028.6259 
  335700    2800.3374   0.33050588    18.183644  0.018963208         0.05     5.289655 0.0077655679    88.859587    7027.7016 
  335800    2801.1112   0.33180877    18.188948  0.018963208         0.05    5.3663354 0.0077014616    89.393068    7026.7638 
  335900    2801.9199   0.32990946    18.194959  0.018963208         0.05    5.5258564 0.0084494514    90.039313    7025.8101 
  336000    2802.7181   0.33013659    18.200265  0.018963208         0.05    5.5774341 0.0079079799    91.399244    7024.8236 
  336100    2803.5332   0.33028801    18.205562  0.018963208         0.05    5.9039655 0.0082519983    91.840335    7023.8266 
  336200    2804.3474   0.33057165    18.211021  0.018963208         0.05    5.7518154  0.008065719    90.496193    7022.8616 
  336300    2805.1287   0.32962072    18.216445  0.018963208         0.05    6.2721991 0.0077086701    90.042463    7021.9074 
  336400    2805.9472   0.33049001    18.221687  0.018963208         0.05    5.8671212 0.0083057312    89.736563    7020.9606 
  336500    2806.7785   0.32989848    18.227682  0.018963208         0.05    5.8462732 0.0082767705    89.908415    7020.0096 
  336600    2807.6012    0.3305763    18.233566  0.018963208         0.05    5.9313384 0.0081632796    89.490016    7019.0686 
  336700    2808.4112    0.3311442    18.239974  0.018963208         0.05    5.6959287 0.0082587587    89.386515    7018.1302 
  336800    2809.2216   0.33097693    18.245828  0.018963208         0.05    5.8124931 0.0080253063    88.705803    7017.2085 
  336900    2810.0195    0.3308621    18.251223  0.018963208         0.05    5.9033845 0.0079328913    89.382286    7016.2699 
  337000    2810.8055   0.33133709    18.256422  0.018963208         0.05    6.0695914 0.0076216365    87.452553    7015.3797 
  337100    2811.5927   0.33059779    18.261356  0.018963208         0.05    5.5365429 0.0079226742     89.78128    7014.4311 
  337200    2812.3663   0.33135998    18.266628  0.018963208         0.05    6.1610762 0.0077289223    89.579981    7013.4873 
  337300    2813.1606   0.32984673    18.272329  0.018963208         0.05    6.1439443 0.0079285049    90.628633    7012.5181 
  337400    2813.9435   0.33021932    18.277239  0.018963208         0.05    6.1663992 0.0078115493     90.70862    7011.5468 
  337500    2814.7208   0.33073516    18.282559  0.018963208         0.05    6.2408534 0.0077228802    89.120994     7010.614 
  337600    2815.4901   0.33145563    18.287562  0.018963208         0.05    6.1433491 0.0077381461    89.794024    7009.6646 
  337700    2816.2615   0.33038088    18.293112  0.018963208         0.05     6.179907 0.0076732521    88.936782    7008.7362 
  337800    2817.0302   0.33096179    18.297511  0.018963208         0.05    6.2719949 0.0077687726    90.283108    7007.7747 
  337900     2817.803   0.33015003    18.302531  0.018963208         0.05    6.3457134 0.0076841627    88.606222    7006.8543 
  338000    2818.5679    0.3309988    18.308403  0.018963208         0.05    6.4171469 0.0076020992    88.210883    7005.9436 
  338100    2819.3243   0.33146045    18.313473  0.018963208         0.05    6.4927859 0.0075177223    88.254148    7005.0318 
  338200    2820.0724   0.33051789    18.319326  0.018963208         0.05    6.5675934 0.0074360511    88.534925    7004.1127 
  338300    2820.8105   0.33160896    18.324136  0.018963208         0.05    6.6535482  0.007340034    88.964248    7003.1829 
  338400    2821.5434   0.33115205    18.328429  0.018963208         0.05    6.7001893 0.0072914617    89.117339    7002.2492 
  338500    2822.2687   0.33049789    18.332584  0.018963208         0.05    6.7743171 0.0072041815    88.619327    7001.3277 
  338600    2822.9854   0.33151387    18.336478  0.018963208         0.05    6.8656905 0.0071170009    88.721152    7000.4035 
  338700    2823.6932   0.33135784     18.34052  0.018963208         0.05    6.9742032 0.0069482188    89.323753    6999.4644 
  338800    2824.4146   0.33118594    18.345129  0.018963208         0.05    6.5582643 0.0073721713    91.376106    6998.4761 
  338900    2825.1519   0.33113141    18.349437  0.018963208         0.05    6.6146175 0.0073395042    89.476576     6997.533 
  339000    2825.8843   0.33128384    18.354601  0.018963208         0.05    6.5344148 0.0073411545    89.107816    6996.5989 
  339100     2826.614   0.33143314    18.359162  0.018963208         0.05    6.6705867 0.0072446489    88.912443    6995.6695 
  339200    2827.3351   0.33153327    18.363475  0.018963208         0.05    6.7447427 0.0071712795    88.828874     6994.742 
  339300    2828.0474   0.33103887    18.368682  0.018963208         0.05    6.8746603 0.0070519765    89.042042    6993.8091 
  339400    2828.7499   0.33131172    18.373104  0.018963208         0.05    6.8982214 0.0070538669    90.006408    6992.8527 
  339500    2829.4522   0.33159457    18.377468  0.018963208         0.05    6.9709626 0.0069825234    88.269583    6991.9388 
  339600    2830.1476   0.33147029    18.382169  0.018963208         0.05    7.0225612 0.0069241021    89.208301    6991.0015 
  339700    2830.8505   0.33205191    18.386991  0.018963208         0.05    6.2471545 0.0073506499    90.154427    6990.0413 
  339800    2831.5888   0.33082615    18.392199  0.018963208         0.05    6.2386629 0.0073952851    89.902249     6989.087 
  339900    2832.3205   0.33131383    18.396631  0.018963208         0.05    6.3288455 0.0072645695    88.746983    6988.1608 
  340000     2833.053   0.33276054    18.401267  0.018963208         0.05    5.9519839  0.007623703    89.308119    6987.2207 
  340100    2833.8122   0.33131973    18.406275  0.018963208         0.05    5.9543187  0.007537143     89.36726     6986.279 
  340200    2834.5633   0.33003734    18.411513  0.018963208         0.05    6.0222932 0.0074651213    88.101156    6985.3685 
  340300    2835.3425   0.33011666    18.416051  0.018963208         0.05    6.0146104 0.0079828694    89.660369    6984.4195 
  340400    2836.1433   0.33134668    18.420822  0.018963208         0.05    5.3954484 0.0081819422    90.503379    6983.4503 
  340500    2836.9609   0.33095263    18.426728  0.018963208         0.05    5.0789597 0.0081589011    88.804029     6982.522 
  340600    2837.7088   0.33172648    18.432216  0.018963208         0.05    5.2508695 0.0068463977    90.384704    6981.5554 
  340700    2838.3833   0.33289992    18.436124  0.018963208         0.05    5.1638249 0.0067165558    90.204179     6980.593 
  340800    2839.0529    0.3314524    18.441234  0.018963208         0.05    5.3514863 0.0066701284    89.356084    6979.6509 
  340900    2839.7529   0.33157223    18.445922  0.018963208         0.05    5.2714231 0.0073663451    90.940183    6978.6711 
  341000    2840.5755   0.33230329    18.451103  0.018963208         0.05    5.3047672 0.0091558639    89.963492    6977.7142 
  341100    2841.4845   0.33090637    18.456512  0.018963208         0.05    5.3967404 0.0087060178    88.457828    6976.7937 
  341200    2842.3637   0.32985549    18.462047  0.018963208         0.05    5.5024682 0.0086274528    90.643596    6975.8205 
  341300    2843.1883    0.3292754    18.467178  0.018963208         0.05    5.8831662 0.0081690157    90.195974    6974.8578 
  341400    2843.9785   0.33127491    18.472433  0.018963208         0.05    5.7002227 0.0073806516     89.45072    6973.9129 
  341500    2844.8001   0.33024608    18.477301  0.018963208         0.05    5.5274053  0.008408018    89.130918    6972.9756 
  341600    2845.6591   0.33053646    18.482169  0.018963208         0.05    6.0657766 0.0081937089    90.645653     6972.002 
  341700    2846.4881   0.33081113     18.48846  0.018963208         0.05    5.1572572 0.0085653643    91.523536    6971.0079 
  341800    2847.3087   0.33012592     18.49401  0.018963208         0.05    5.4026595 0.0085739141    90.065259    6970.0479 
  341900    2848.1661   0.33112648    18.499198  0.018963208         0.05    5.5189957 0.0086825843    89.543874    6969.1002 
  342000    2849.0298   0.33179952    18.505172  0.018963208         0.05    5.2049791 0.0086124368    88.415929    6968.1799 
  342100     2849.885   0.33066633    18.510888  0.018963208         0.05    5.7703123 0.0083305525    87.844972    6967.2735 
  342200    2850.7423   0.33079256    18.517461  0.018963208         0.05    5.7145308 0.0086129583    88.810667    6966.3433 
  342300    2851.5982   0.33067996    18.523058  0.018963208         0.05    5.7999679  0.008496311    88.774069    6965.4138 
  342400    2852.4425   0.33200892    18.528684  0.018963208         0.05    5.8907323 0.0083529085     89.26674    6964.4722 
  342500    2853.2791   0.33054032    18.534462  0.018963208         0.05    5.8176344 0.0085627964    89.185311    6963.5325 
  342600    2854.1332   0.33108128    18.540288  0.018963208         0.05    5.6719728 0.0087924291    89.764103    6962.5788 
  342700    2854.9947   0.33089006    18.545927  0.018963208         0.05    5.7610996 0.0086008952    89.643966    6961.6279 
  342800    2855.8509   0.33009643    18.552189  0.018963208         0.05    5.4797893 0.0085737417    89.380686    6960.6832 
  342900    2856.7113    0.3311791    18.558441  0.018963208         0.05    5.4857722 0.0087082472    89.500118    6959.7356 
  343000    2857.5827   0.33061125    18.565202  0.018963208         0.05    5.7928758 0.0085618062    88.020657    6958.8238 
  343100    2858.4245   0.33071461    18.571863  0.018963208         0.05    6.0162665 0.0081804291    89.750254      6957.87 
  343200     2859.267   0.33200825    18.577966  0.018963208         0.05    5.4734196 0.0084897289    89.270483    6956.9275 
  343300    2860.1136   0.33101235    18.584426  0.018963208         0.05    5.5273004 0.0084279505     88.88936    6955.9941 
  343400    2860.9491   0.33171467    18.590025  0.018963208         0.05    5.6258657 0.0087404884    90.466954    6955.0231 
  343500    2861.8091    0.3311232    18.596667  0.018963208         0.05    5.7291475 0.0083491561    90.370235    6954.0543 
  343600    2862.6416   0.33151154     18.60241  0.018963208         0.05    5.7765367 0.0082739469    89.652339    6953.1023 
  343700    2863.4631   0.33084685    18.608384  0.018963208         0.05    5.9992027  0.007954763    88.893542    6952.1684 
  343800    2864.2906   0.33195224    18.614174  0.018963208         0.05    5.8047906 0.0082484612    89.072826    6951.2301 
  343900    2865.1084    0.3321457    18.620294  0.018963208         0.05    5.8433838 0.0081200329     88.97644    6950.2939 
  344000    2865.9157   0.33075214    18.626714  0.018963208         0.05    5.9282822 0.0080153073    88.025607    6949.3809 
  344100    2866.7065   0.33024036    18.632303  0.018963208         0.05    5.7092114 0.0072855729    88.761858    6948.4497 
  344200    2867.4316   0.33144559      18.6373  0.018963208         0.05    5.7338482 0.0072141287    89.031193    6947.5119 
  344300    2868.1509   0.33117229    18.642013  0.018963208         0.05    5.8389179 0.0071762468    88.969702    6946.5755 
  344400    2868.8671   0.33118113    18.647063  0.018963208         0.05    5.9267508 0.0076079341    89.421446    6945.6282 
  344500    2869.6256   0.33064361    18.652669  0.018963208         0.05    5.9289017 0.0075609393     89.87811      6944.67 
  344600    2870.3898   0.33018725    18.658103  0.018963208         0.05    6.0451235 0.0076782279    89.215132    6943.7274 
  344700     2871.152   0.33149251    18.663823  0.018963208         0.05    6.2583492 0.0076498889    90.218751     6942.761 
  344800    2871.9434   0.33086974    18.669707  0.018963208         0.05    5.6401305  0.008154523    92.391656     6941.745 
  344900    2872.7648   0.33110163    18.675833  0.018963208         0.05    5.4766028 0.0082467725    90.560263    6940.7705 
  345000    2873.5787   0.33235061    18.681248  0.018963208         0.05    5.6023268 0.0078556183    88.515157    6939.8444 
  345100    2874.3744   0.33016014    18.686599  0.018963208         0.05    5.6818975 0.0079808801    89.294334    6938.8994 
  345200    2875.1669   0.33049392     18.69231  0.018963208         0.05    5.7328766 0.0084046052    88.976195     6937.962 
  345300     2876.001   0.33124294    18.697966  0.018963208         0.05    5.8394167 0.0082891807    88.960682    6937.0248 
  345400    2876.8282   0.33136391    18.703224  0.018963208         0.05    5.4325121 0.0086642252    89.253766    6936.0805 
  345500    2877.6696   0.33208971    18.708716  0.018963208         0.05    5.8989144 0.0078548172    89.387791    6935.1329 
  345600    2878.4493   0.33232313    18.713751  0.018963208         0.05    5.9608271 0.0072954823    89.293536    6934.1875 
  345700    2879.1793   0.33242668      18.7184  0.018963208         0.05    5.7985072 0.0072705498    89.322954    6933.2412 
  345800    2879.9028   0.33183384    18.723365  0.018963208         0.05    5.7154539 0.0072088005    88.847502    6932.3062 
  345900    2880.6359   0.33148159    18.728811  0.018963208         0.05    6.0126749 0.0074217505    90.025862    6931.3433 
  346000    2881.3743   0.33130584    18.733677  0.018963208         0.05    6.1184044 0.0073469843    87.904899    6930.4309 
  346100    2882.1039   0.33231367    18.738177  0.018963208         0.05    6.3300678 0.0072159096    89.405854    6929.4822 
  346200    2882.8272   0.33174213    18.742384  0.018963208         0.05    6.3641772 0.0072192061    90.196051     6928.515 
  346300     2883.546   0.33075321    18.747189  0.018963208         0.05    6.4387528 0.0071487603    88.835986    6927.5798 
  346400    2884.2721   0.33124548    18.752116  0.018963208         0.05    5.8355889 0.0074139018    89.676357    6926.6245 
  346500    2885.0694   0.33189227    18.756426  0.018963208         0.05    5.9248684 0.0081828505    89.926362    6925.6633 
  346600    2885.8839   0.33092386    18.761134  0.018963208         0.05    5.9940893 0.0080896644    89.266037    6924.7175 
  346700    2886.6881    0.3310415    18.765831  0.018963208         0.05    6.1273138 0.0079171375    88.873162    6923.7809 
  346800    2887.4848   0.32990538    18.770998  0.018963208         0.05    6.0599354 0.0079458546    89.701136    6922.8247 
  346900    2888.3361   0.33053877    18.775614  0.018963208         0.05    5.2096052 0.0086050704    89.883695    6921.8641 
  347000    2889.1919   0.33158545    18.781085  0.018963208         0.05     5.271194 0.0083580633    88.053586     6920.947 
  347100    2890.0068   0.33174993    18.786937  0.018963208         0.05     5.376574 0.0081026989    89.464724     6919.996 
  347200    2890.8048   0.33103383    18.792624  0.018963208         0.05    5.4823309 0.0076478383    88.476787    6919.0684 
  347300    2891.5832   0.33139321    18.797922  0.018963208         0.05    5.5077198 0.0080307248    92.734428    6918.0431 
  347400    2892.3871   0.33167838    18.802823  0.018963208         0.05    5.7613343 0.0080004821    90.258181    6917.0734 
  347500     2893.177   0.33240501    18.807581  0.018963208         0.05    5.9154195 0.0080532844    89.196899    6916.1284 
  347600     2893.968   0.33156688    18.812133  0.018963208         0.05    5.6279113 0.0078717404     90.12566    6915.1616 
  347700    2894.7436    0.3309845    18.817216  0.018963208         0.05    5.4255475 0.0081257943    89.931703    6914.1992 
  347800    2895.5863   0.33077899    18.823545  0.018963208         0.05    5.5149993 0.0085350309    89.741555    6913.2411 
  347900    2896.4338   0.33077288    18.828278  0.018963208         0.05    5.6032619 0.0084107147    88.285636    6912.3174 
  348000    2897.2625   0.33185197    18.833857  0.018963208         0.05    5.3974275 0.0088499049    87.967767    6911.4012 
  348100    2898.1516   0.32976352    18.839945  0.018963208         0.05    5.2626039  0.009271408    90.630767    6910.4224 
  348200    2899.0728   0.33102048     18.84542  0.018963208         0.05    5.3501437 0.0091453832     90.02165    6909.4574 
  348300    2899.9688   0.33175022    18.850377  0.018963208         0.05    5.4418197 0.0089601908    89.974338    6908.4935 
  348400    2900.8408   0.33208041    18.855599  0.018963208         0.05    5.7998252 0.0083631442    89.549972    6907.5393 
  348500    2901.6723   0.33113479     18.86086  0.018963208         0.05    5.8899481 0.0082463992    88.327133    6906.6139 
  348600    2902.4921   0.33042019    18.865099  0.018963208         0.05    6.0121818 0.0081257491    89.234074    6905.6669 
  348700    2903.3063   0.33088476    18.869949  0.018963208         0.05    6.0174645 0.0081155376    89.724009    6904.7084 
  348800    2904.1118   0.33077062     18.87487  0.018963208         0.05    6.1172858 0.0079855805    89.169782    6903.7628 
  348900    2904.8995   0.33106549    18.880353  0.018963208         0.05    6.1332872 0.0078079635    89.326397    6902.8133 
  349000    2905.7728    0.3307722    18.886524  0.018963208         0.05     5.373204  0.008933454    90.203772    6901.8435 
  349100    2906.6503   0.33003642    18.892151  0.018963208         0.05    5.4606286  0.008859426    89.110769    6900.8989 
  349200    2907.5286   0.33095497    18.897176  0.018963208         0.05    5.5461352 0.0087288743     89.68907    6899.9407 
  349300    2908.3946   0.33060747    18.902443  0.018963208         0.05    5.7154583 0.0084497226    89.310268    6898.9913 
  349400    2909.2485   0.33179536    18.908226  0.018963208         0.05    5.7486112 0.0085071973    89.862839    6898.0289 
  349500    2910.0901   0.33110696    18.913752  0.018963208         0.05    5.8608808 0.0083497268    89.216821    6897.0815 
  349600    2910.9306   0.33179615    18.919109  0.018963208         0.05    5.7992021 0.0084023911    89.556856     6896.126 
  349700    2911.7621   0.33060997    18.924694  0.018963208         0.05    5.8950255 0.0081932486    89.251449    6895.1775 
  349800     2912.593   0.33138593    18.929028  0.018963208         0.05    5.8471829 0.0082510514    90.319872    6894.2044 
  349900     2913.435   0.33132951     18.93432  0.018963208         0.05    5.2740477 0.0087865282    89.490188    6893.2502 
  350000     2914.318   0.33216759    18.939837  0.018963208         0.05     5.337752 0.0088507084    88.733033    6892.3136 
  350100    2915.1927   0.33124232    18.945299  0.018963208         0.05    5.4101024 0.0086870495    88.242729    6891.3885 
  350200    2916.0512   0.33165821    18.950754  0.018963208         0.05    5.5492392 0.0084049959    87.913245    6890.4712 
  350300    2916.8913   0.33085425    18.956021  0.018963208         0.05    5.3803746 0.0084416495    90.031369    6889.5042 
  350400    2917.7406   0.33102891    18.960906  0.018963208         0.05     5.032663 0.0093861022    89.289297    6888.5541 
  350500    2918.6586   0.33039585    18.966137  0.018963208         0.05    5.1357239 0.0092550179    89.966811    6887.5884 
  350600    2919.5808   0.33050778    18.971784  0.018963208         0.05    5.2145834 0.0091999611    90.529028    6886.6097 
  350700    2920.5024   0.33089223    18.977443  0.018963208         0.05    5.3474555 0.0092001009     88.99362    6885.6663 
  350800    2921.3855   0.33033198    18.983079  0.018963208         0.05    5.3942024 0.0086588279    90.499708    6884.6882 
  350900    2922.2836   0.33105457    18.988491  0.018963208         0.05    5.4978704  0.008935409    88.716423    6883.7511 
  351000    2923.1688   0.33146783    18.993479  0.018963208         0.05     5.444806 0.0088489309    87.968394    6882.8316 
  351100    2924.0825   0.32985661    18.999371  0.018963208         0.05    5.1871611 0.0091534033    90.293214    6881.8579 
  351200     2924.981    0.3300998    19.004782  0.018963208         0.05    5.1834102 0.0090822355    90.438962    6880.8808 
  351300    2925.8765   0.33137299    19.010843  0.018963208         0.05    5.1685086 0.0090206417    90.163439    6879.9099 
  351400    2926.7739   0.33116571    19.017035  0.018963208         0.05    5.2582098 0.0090283937    89.330621     6878.958 
  351500     2927.675   0.33035113    19.023125  0.018963208         0.05    5.3441874 0.0090324573    89.653776    6877.9985 
  351600    2928.5628   0.33087552    19.029144  0.018963208         0.05     5.480284 0.0089534476    90.379309    6877.0225 
  351700    2929.4532   0.33137252    19.035425  0.018963208         0.05    5.5685951  0.008839659     91.02882    6876.0318 
  351800    2930.3352   0.33133002     19.04167  0.018963208         0.05    5.4206912 0.0089889388    89.301197    6875.0802 
  351900    2931.2286   0.32963297    19.048386  0.018963208         0.05    5.1850937 0.0090608634    89.731475    6874.1187 
  352000    2932.1278   0.33117971    19.054051  0.018963208         0.05    4.7947662  0.008975201    90.375882    6873.1424 
  352100    2933.0175   0.33213706    19.060594  0.018963208         0.05    4.8466853 0.0087535839    88.826203    6872.2015 
  352200    2933.8785   0.33123629    19.066729  0.018963208         0.05    4.8644975 0.0086158212    90.578725    6871.2205 
  352300    2934.7373    0.3314242    19.072604  0.018963208         0.05    5.0253757 0.0083880871     89.40776     6870.266 
  352400    2935.5955   0.33161289    19.078944  0.018963208         0.05    5.0331875 0.0084587671    90.350476      6869.29 
  352500    2936.4725   0.33165663    19.084368  0.018963208         0.05     5.097641 0.0092196724    89.002741    6868.3447 
  352600    2937.3999   0.33086822    19.090137  0.018963208         0.05    5.0930699 0.0091491164    90.466056    6867.3659 
  352700    2938.3338   0.33090135    19.095827  0.018963208         0.05    5.1310833 0.0096855318    89.268735    6866.4143 
  352800    2939.1977    0.3318379    19.102378  0.018963208         0.05    5.5955219 0.0080699464    90.472691    6865.4352 
  352900    2939.9978   0.33222532    19.107476  0.018963208         0.05    5.7441599 0.0078394294    89.429836    6864.4796 
  353000    2940.7806   0.33139492    19.112651  0.018963208         0.05    5.6980158 0.0076218346    90.842764    6863.4921 
  353100    2941.5843   0.33016342    19.117544  0.018963208         0.05    5.7852285 0.0081029128    89.738022    6862.5294 
  353200    2942.3912   0.33224479    19.122117  0.018963208         0.05    5.9899273 0.0080533482    90.417457    6861.5512 
  353300    2943.1943   0.33171763      19.1268  0.018963208         0.05    5.4135373 0.0080030346    89.129592    6860.6023 
  353400    2943.9912   0.33054828    19.132197  0.018963208         0.05    5.3477232 0.0079917619     90.10835    6859.6309 
  353500    2944.7849   0.33283821    19.137151  0.018963208         0.05    5.6406964 0.0076986876    89.394745    6858.6756 
  353600    2945.6095   0.33223062    19.141972  0.018963208         0.05    5.7214421 0.0084653622    91.224151    6857.6793 
  353700    2946.4611    0.3313716     19.14738  0.018963208         0.05     5.806608 0.0084618978    89.685772    6856.7172 
  353800     2947.302   0.33232378    19.152362  0.018963208         0.05    5.8903819 0.0083453757     89.26826    6855.7646 
  353900     2948.129   0.33153056    19.158264  0.018963208         0.05    5.9714411 0.0082352052    89.378839    6854.8094 
  354000    2948.9476    0.3321166    19.163066  0.018963208         0.05    6.0557834 0.0081235341    88.518912    6853.8739 
  354100    2949.7566   0.33312657    19.168092  0.018963208         0.05    5.0921572 0.0090682159    88.982858    6852.9276 
  354200    2950.6687   0.33236589    19.174183  0.018963208         0.05     4.326338 0.0094321667    90.174915     6851.954 
  354300    2951.6062   0.33123134    19.180538  0.018963208         0.05    4.4865101 0.0092485339    89.392097    6850.9981 
  354400     2952.545   0.33168134    19.185543  0.018963208         0.05    4.5401936 0.0091509326    90.465978    6850.0179 
  354500    2953.4988   0.33187287     19.19143  0.018963208         0.05    4.5213156 0.0099239979    90.212153    6849.0433 
  354600     2954.423   0.33174524    19.196956  0.018963208         0.05    4.6737565  0.009663559    89.545652    6848.0837 
  354700    2955.3863   0.33307776    19.202512  0.018963208         0.05    4.8000968 0.0095562705    89.650308    6847.1216 
  354800    2956.3264   0.33145304     19.20811  0.018963208         0.05    4.6488769 0.0094410151    89.247385    6846.1685 
  354900    2957.2464   0.33239191    19.212892  0.018963208         0.05    4.5901228 0.0094283715    89.736486    6845.2043 
  355000    2958.1791   0.33149698    19.218137  0.018963208         0.05    4.9436536  0.009296271    89.164702    6844.2529 
  355100    2959.1001   0.33136297    19.223968  0.018963208         0.05    4.7658935 0.0091629104    87.990761    6843.3287 
  355200    2960.0024   0.33144685    19.228783  0.018963208         0.05    4.8561188 0.0090321845    89.890861    6842.3607 
  355300      2960.89   0.33155743    19.234172  0.018963208         0.05    5.4235593 0.0085606146    89.235612    6841.4074 
  355400    2961.7465   0.33261696    19.239069  0.018963208         0.05    5.6281192 0.0084923374     90.17222    6840.4329 
  355500    2962.6158   0.33110121    19.244416  0.018963208         0.05    4.9541421 0.0088673182    93.058648    6839.3961 
  355600    2963.4588   0.33153941    19.249792  0.018963208         0.05    5.5513418 0.0083422776    88.964022    6838.4488 
  355700    2964.2877   0.33211031    19.254326  0.018963208         0.05    5.6445957 0.0081682046    88.579051    6837.5102 
  355800    2965.1777   0.33070724    19.259764  0.018963208         0.05    5.1837711 0.0093902726    90.201347    6836.5348 
  355900     2966.138   0.33062502    19.265947  0.018963208         0.05    5.1728239 0.0095821016     90.25418    6835.5582 
  356000     2967.096   0.33028036     19.27138  0.018963208         0.05    4.8781599 0.0095867272    89.339716    6834.6019 
  356100    2968.0418   0.33144434    19.277559  0.018963208         0.05    4.9602424  0.009148874    87.661082    6833.6844 
  356200    2968.9371   0.33102229    19.283596  0.018963208         0.05    5.1607844 0.0084328773    89.897007    6832.7154 
  356300    2969.7704   0.33158871    19.287721  0.018963208         0.05    5.2734642 0.0093799029    90.364608     6831.736 
  356400    2970.6364   0.33098458    19.292603  0.018963208         0.05    5.6670201 0.0086147342    90.514532    6830.7532 
  356500    2971.5038   0.33172798    19.297113  0.018963208         0.05    5.7022295 0.0086894929    91.490815     6829.749 
  356600    2972.3676    0.3305944    19.302393  0.018963208         0.05    5.6501965 0.0086288361    90.753232    6828.7608 
  356700    2973.2249    0.3296032    19.306747  0.018963208         0.05     5.735771 0.0085062566    89.424573    6827.8021 
  356800    2974.0702   0.33172449    19.311191  0.018963208         0.05    5.8202997 0.0083067398    89.131789    6826.8499 
  356900    2974.9029   0.33057477    19.315959  0.018963208         0.05    5.9060393 0.0082707766    90.098788    6825.8759 
  357000    2975.7257   0.33122031    19.321101  0.018963208         0.05    5.6370538 0.0083126481    88.969381    6824.9272 
  357100    2976.5499   0.33053579    19.325985  0.018963208         0.05    5.7259241  0.008197679    89.698181     6823.962 
  357200     2977.365   0.33064515    19.331056  0.018963208         0.05    5.8193191 0.0080362931    89.383391    6823.0037 
  357300    2978.2059   0.33092348    19.335804  0.018963208         0.05    5.1894529 0.0088097808     91.24088    6822.0044 
  357400    2979.0835   0.33085032    19.340592  0.018963208         0.05    5.2904642 0.0089540332    90.676048    6821.0174 
  357500    2979.9668   0.32977534    19.345957  0.018963208         0.05    5.4064047 0.0088246669    89.631437    6820.0533 
  357600    2980.8374   0.33234733    19.351358  0.018963208         0.05    5.2888777 0.0086615293    90.864156     6819.062 
  357700    2981.6988   0.33164525    19.356627  0.018963208         0.05    5.2970644 0.0086118527    90.753075     6818.073 
  357800    2982.5451   0.33147042    19.362254  0.018963208         0.05     5.395715 0.0084111156    90.345085    6817.0929 
  357900    2983.3709   0.33121941    19.367692  0.018963208         0.05    5.4931248 0.0082429556     90.10293    6816.1181 
  358000    2984.1989   0.33177103    19.372255  0.018963208         0.05     5.711577 0.0084106261    89.083288     6815.166 
  358100    2985.0365   0.33170396    19.377364  0.018963208         0.05    5.7754508 0.0083169964    89.219667    6814.2107 
  358200    2985.8667   0.33239539    19.382661  0.018963208         0.05    5.3055407 0.0085179235    91.658861    6813.2018 
  358300    2986.7128   0.33054934    19.387761  0.018963208         0.05    5.3920309 0.0084036027    89.989472    6812.2292 
  358400    2987.5483   0.33048077    19.392268  0.018963208         0.05    5.5623626 0.0081419221    89.307891    6811.2717 
  358500    2988.3605   0.33004452    19.397692  0.018963208         0.05    5.9654653 0.0081813131    90.255307     6810.293 
  358600    2989.1729   0.33162997    19.402226  0.018963208         0.05    6.0793215 0.0080673317    89.080356    6809.3404 
  358700    2989.9748   0.33129603    19.406728  0.018963208         0.05    6.1764063 0.0079583086    89.462244    6808.3792 
  358800    2990.7648   0.33011343    19.411698  0.018963208         0.05    5.1819765 0.0081938718     88.68504    6807.4354 
  358900    2991.5805   0.33101396    19.416281  0.018963208         0.05    4.9783563 0.0081115658    89.355361    6806.4763 
  359000    2992.3838   0.33147585    19.421199  0.018963208         0.05    4.9265168 0.0081113001    89.433039    6805.5155 
  359100    2993.2095   0.33063061    19.426043  0.018963208         0.05    4.8453004 0.0085213328    90.789829    6804.5247 
  359200    2994.0638   0.33002795    19.431493  0.018963208         0.05    4.9230194 0.0085262619    91.534941    6803.5179 
  359300    2994.9418   0.33068841    19.437262  0.018963208         0.05    4.9361957 0.0086620856    90.866381    6802.5253 
  359400    2995.8183   0.33056913    19.443461  0.018963208         0.05    5.2515211 0.0088027574    90.273236    6801.5456 
  359500    2996.6942   0.33148078    19.449014  0.018963208         0.05    5.2152375 0.0087003615    88.435857    6800.6068 
  359600     2997.555    0.3317294    19.454862  0.018963208         0.05    5.3056763  0.008658557    89.916665    6799.6348 
  359700     2998.396   0.33067964    19.460104  0.018963208         0.05    5.3701152 0.0089623662    89.290418    6798.6765 
  359800    2999.2779    0.3297024    19.465047  0.018963208         0.05    5.4031752 0.0086401446     89.41975    6797.7153 
  359900    3000.1451   0.33161316    19.470546  0.018963208         0.05    5.6051797 0.0085738546     90.05561      6796.74 
  360000    3000.9973    0.3311682    19.475296  0.018963208         0.05    5.6867977 0.0084369538    87.941005     6795.812 
  360100    3001.8328   0.33195619     19.47993  0.018963208         0.05    5.7627988 0.0085651709    89.498036    6794.8488 
  360200     3002.684   0.33122298    19.485947  0.018963208         0.05    5.8178177 0.0084857076    88.574038    6793.9062 
  360300    3003.5544   0.33072105    19.491155  0.018963208         0.05    5.3004383 0.0086138659    89.124971    6792.9511 
  360400    3004.4213   0.32914743    19.497422  0.018963208         0.05    5.5339857 0.0085852387    89.689953    6791.9833 
  360500    3005.2709   0.33042644    19.502629  0.018963208         0.05    5.5134746 0.0084338165    89.269552    6791.0248 
  360600    3006.1066   0.33125248    19.508204  0.018963208         0.05    5.8878593 0.0083790493    90.048785     6790.049 
  360700     3006.943   0.33153179    19.513281  0.018963208         0.05    5.1621672 0.0083281273    88.896632    6789.0987 
  360800    3007.7705   0.33122497    19.519061  0.018963208         0.05    5.2449213  0.008223019    88.239221    6788.1631 
  360900     3008.588   0.33054354    19.524885  0.018963208         0.05    5.3266727 0.0085418294     89.07591    6787.2085 
  361000    3009.4549      0.33118    19.530069  0.018963208         0.05    5.6211064 0.0086823877    88.520332    6786.2663 
  361100    3010.3168    0.3299708    19.535052  0.018963208         0.05     5.373061 0.0086591609     90.10624    6785.2889 
  361200    3011.1831   0.33032553    19.540627  0.018963208         0.05    5.6114448 0.0086695259      91.2596    6784.2865 
  361300    3012.0488   0.33015205    19.546079  0.018963208         0.05    5.9614059 0.0083050793    90.402685    6783.3025 
  361400    3012.9018   0.33089664    19.550896  0.018963208         0.05    5.7819203 0.0085807019    90.393762    6782.3186 
  361500    3013.7428   0.33065194    19.556562  0.018963208         0.05    5.0347491 0.0082175274    90.004051    6781.3431 
  361600    3014.5723   0.33112559    19.561808  0.018963208         0.05    5.3081042 0.0084982406    90.810862    6780.3501 
  361700    3015.4162   0.33006636    19.567748  0.018963208         0.05    5.3362044  0.008446699    89.587347    6779.3835 
  361800       3016.2   0.33065891    19.573588  0.018963208         0.05    5.3540004 0.0074869394    89.388515    6778.4213 
  361900    3016.9539   0.33066177    19.578699  0.018963208         0.05    5.3672265 0.0084582139    89.642759    6777.4534 
  362000    3017.7922   0.33080316    19.584779  0.018963208         0.05    5.4510619 0.0083505418    87.802401    6776.5266 
  362100    3018.6225   0.33047796    19.590428  0.018963208         0.05    5.5340952  0.008246299    88.785814    6775.5775 
  362200    3019.4426   0.33256159    19.596281  0.018963208         0.05    5.6198023 0.0081417078    88.799856    6774.6279 
  362300    3020.2509   0.33251692     19.60213  0.018963208         0.05    5.7079004 0.0080448396    89.515667    6773.6624 
  362400    3021.0492   0.33183262     19.60758  0.018963208         0.05    5.7877342 0.0079509428     89.20056    6772.7038 
  362500    3021.8324   0.33197109    19.611696  0.018963208         0.05    6.0768882 0.0076516926    89.178238    6771.7456 
  362600    3022.6546   0.33067954    19.616255  0.018963208         0.05    5.2540825 0.0077238805    89.634808    6770.7772 
  362700    3023.4458   0.33188394    19.620714  0.018963208         0.05    5.2042722 0.0077915964    90.112822    6769.7984 
  362800    3024.2328   0.33055245    19.625771  0.018963208         0.05    5.2765216  0.007920469      91.1053    6768.7982 
  362900    3025.0226   0.33151027    19.631215  0.018963208         0.05    5.3610343 0.0075845124    89.602428    6767.8303 
  363000     3025.912   0.33140673    19.637265  0.018963208         0.05    5.4499732 0.0089957064    87.741164    6766.9039 
  363100    3026.7702   0.33093725     19.64316  0.018963208         0.05    5.7899961 0.0085356558    90.657879    6765.9131 
  363200    3027.6178   0.33112915    19.648976  0.018963208         0.05    5.8754728 0.0084098812    88.623428    6764.9666 
  363300    3028.4534   0.33159568    19.654254  0.018963208         0.05    5.7124413 0.0087189176    89.032043    6764.0109 
  363400    3029.3194   0.33069472    19.659271  0.018963208         0.05    5.8080573 0.0085753451    88.323301    6763.0709 
  363500    3030.1872   0.33112873    19.664742  0.018963208         0.05    5.6077025 0.0088427795    89.215378     6762.111 
  363600    3031.0551   0.33105564    19.670609  0.018963208         0.05    5.7553845 0.0086543583    89.139195    6761.1526 
  363700    3031.9213    0.3310792    19.676342  0.018963208         0.05    5.5828062 0.0089042205    91.173327    6760.1504 
  363800    3032.8095   0.33292961    19.682585  0.018963208         0.05    5.5359314 0.0088925229    89.356731    6759.1872 
  363900    3033.6193   0.33241793    19.688087  0.018963208         0.05    5.6212866 0.0079764324    90.203772    6758.2054 
  364000    3034.4068   0.33311227    19.692955  0.018963208         0.05    5.5578589 0.0070137719    90.412487    6757.2192 
  364100    3035.1159    0.3314271    19.697546  0.018963208         0.05    5.6212587 0.0070963937    89.898857    6756.2439 
  364200    3035.9179   0.33123029    19.703028  0.018963208         0.05    5.7021389 0.0083894194    90.296402    6755.2599 
  364300    3036.7581   0.33221408    19.708595  0.018963208         0.05    5.7809529  0.008463586    90.564447    6754.2702 
  364400    3037.5974   0.33114809    19.714329  0.018963208         0.05    5.9131236 0.0083505551     89.78893    6753.2971 
  364500    3038.4274   0.33297904    19.719766  0.018963208         0.05    5.9539378 0.0082322145     88.61517    6752.3496 
  364600    3039.2186   0.33256463    19.725006  0.018963208         0.05    5.3686223 0.0072445739    89.649024    6751.3793 
  364700    3039.9403   0.33166555    19.730056  0.018963208         0.05    5.7910091  0.007167276    88.933803    6750.4246 
  364800     3040.742   0.33213256    19.735541  0.018963208         0.05    5.6632169  0.008211451    89.679252    6749.4535 
  364900    3041.5572   0.33158423    19.741082  0.018963208         0.05    5.6295431 0.0077837117    90.200358    6748.4711 
  365000    3042.3217   0.33137819    19.745782  0.018963208         0.05    6.1598104 0.0070495447    89.384286    6747.5063 
  365100     3043.025   0.33287576    19.750273  0.018963208         0.05     5.808022  0.006755961    89.724488     6746.534 
  365200    3043.7071   0.33139156    19.755466  0.018963208         0.05    5.9327181 0.0068145961    90.030867     6745.555 
  365300    3044.4033   0.33056905     19.76007  0.018963208         0.05    5.1937734 0.0069084209    89.202097    6744.5939 
  365400    3045.1085   0.33188458    19.764773  0.018963208         0.05    5.9944591 0.0080874129    89.540987    6743.6253 
  365500    3045.9205   0.33036945    19.770167  0.018963208         0.05    5.9765246 0.0080584869    89.566399    6742.6561 
  365600    3046.7187   0.33216621    19.775738  0.018963208         0.05    6.0671078 0.0080592805    90.612382    6741.6645 
  365700    3047.5229    0.3317059     19.78125  0.018963208         0.05    5.4116476 0.0080820061    89.501073    6740.6965 
  365800    3048.3275   0.33123933    19.786732  0.018963208         0.05    5.6004777 0.0081998913      88.0405    6739.7606 
  365900    3049.1456   0.33118731    19.791346  0.018963208         0.05    5.6534082 0.0079366908    90.089189    6738.7799 
  366000    3049.9051   0.33177382    19.796262  0.018963208         0.05     5.786116 0.0075328274    90.230726     6737.796 
  366100    3050.6614   0.33188742    19.800506  0.018963208         0.05    6.0188298 0.0075806991    91.349976    6736.7886 
  366200    3051.4319   0.33165887    19.805312  0.018963208         0.05    6.1052259 0.0076802033    90.163768     6735.806 
  366300    3052.2129   0.33172558    19.810228  0.018963208         0.05    6.2094702 0.0078318133    90.135324     6734.824 
  366400    3052.9919    0.3314408    19.815176  0.018963208         0.05    6.2873722 0.0077399226    88.733503    6733.8722 
  366500    3053.7618   0.33171308    19.820122  0.018963208         0.05    6.3643694 0.0076511369    88.323934    6732.9294 
  366600     3054.553   0.32995283    19.825558  0.018963208         0.05    5.5776402 0.0081204358    89.783683    6731.9547 
  366700    3055.3599   0.33151576    19.830033  0.018963208         0.05    5.4894901  0.008052733    89.119422    6730.9942 
  366800    3056.1615   0.33239163    19.835219  0.018963208         0.05    5.6261517 0.0079365505    88.628989    6730.0443 
  366900    3056.9555   0.33051866    19.840558  0.018963208         0.05    5.5400536 0.0079520491    89.686098    6729.0714 
  367000    3057.7481   0.33066106     19.84505  0.018963208         0.05     5.584014 0.0078860391    89.059247     6728.112 
  367100    3058.5296   0.33085423    19.849477  0.018963208         0.05    5.9747716 0.0075869807    87.696988    6727.1825 
  367200    3059.3026   0.33066556    19.853822  0.018963208         0.05    5.5125989 0.0082633801    90.509941    6726.1919 
  367300    3060.1236   0.33082461    19.859121  0.018963208         0.05     5.738187 0.0081395943    88.906826    6725.2355 
  367400    3060.9335   0.33039712    19.864243  0.018963208         0.05     5.799399 0.0080619264    89.082815    6724.2752 
  367500    3061.7408   0.33145961    19.868845  0.018963208         0.05    5.0629795  0.008819475    89.807482    6723.2992 
  367600    3062.6408   0.33175298    19.873981  0.018963208         0.05    5.1520923  0.008969939    89.862281     6722.322 
  367700    3063.5204    0.3308404    19.878881  0.018963208         0.05    5.3804259 0.0081703597    90.164001    6721.3383 
  367800    3064.3489   0.33121605     19.88394  0.018963208         0.05    5.3677969 0.0082543106    89.184419    6720.3755 
  367900    3065.1714    0.3316975    19.888314  0.018963208         0.05    5.3032202  0.008255421    89.944315    6719.3963 
  368000     3065.993   0.33155084    19.892832  0.018963208         0.05    5.3713688 0.0081654558    87.173787    6718.4777 
  368100    3066.8078   0.33055072    19.897441  0.018963208         0.05    5.6005361 0.0083202868    89.039887    6717.5177 
  368200    3067.6357   0.33167404    19.901548  0.018963208         0.05    5.6767833  0.008223148     88.85825    6716.5616 
  368300     3068.452   0.33119811    19.906488  0.018963208         0.05    5.8148274 0.0080233282    88.469191    6715.6138 
  368400    3069.2518   0.33029315    19.910553  0.018963208         0.05    5.8468947 0.0078982326    88.872842    6714.6572 
  368500    3070.0384   0.33084063    19.914074  0.018963208         0.05    6.3504068 0.0077459496    89.917802    6713.6781 
  368600    3070.8106   0.32972507    19.918773  0.018963208         0.05    6.5087401 0.0076678147    89.425603    6712.7094 
  368700    3071.6065   0.32987756    19.922855  0.018963208         0.05    5.8526428 0.0082933954    88.829194    6711.7534 
  368800    3072.4308   0.33043746    19.927037  0.018963208         0.05    4.9434449 0.0084334631    89.951665    6710.7733 
  368900     3073.298   0.33120897    19.932984  0.018963208         0.05     5.121414 0.0095145103    90.483582     6709.782 
  369000    3074.1279   0.33120686    19.938272  0.018963208         0.05    5.6254523 0.0081547141    88.992676    6708.8223 
  369100    3074.9443    0.3297469    19.943099  0.018963208         0.05    5.6246584  0.008129845    88.678347    6707.8692 
  369200    3075.7463   0.33099434    19.947682  0.018963208         0.05    5.1323796 0.0092193276    89.621382    6706.8959 
  369300    3076.6499   0.33150834    19.952595  0.018963208         0.05    5.2244401 0.0090698672      89.2306    6705.9308 
  369400     3077.551   0.33082636    19.957499  0.018963208         0.05    5.3098126 0.0089369405    88.831865    6704.9741 
  369500    3078.4387   0.33063984    19.962952  0.018963208         0.05    5.3985802 0.0088042553    88.728716    6704.0197 
  369600    3079.3039    0.3301935     19.96811  0.018963208         0.05     5.620463 0.0085977065    89.737849    6703.0435 
  369700    3080.1457   0.33098547    19.972988  0.018963208         0.05     5.213796 0.0092687329    89.243947    6702.0778 
  369800    3081.0418   0.32960914    19.979043  0.018963208         0.05     5.128572 0.0089623512    91.157871    6701.0718 
  369900    3081.9353   0.33115444    19.985151  0.018963208         0.05    5.2095533 0.0089153704    88.986426    6700.1115 
  370000    3082.8216   0.33188965    19.989728  0.018963208         0.05    5.1071127 0.0087630682    87.516163    6699.1832 
  370100    3083.6706   0.33085235    19.995066  0.018963208         0.05    5.3260503 0.0075240602     89.49099    6698.2118 
  370200    3084.4215   0.33224554    19.999795  0.018963208         0.05    5.3446016 0.0074841009    88.547523    6697.2607 
  370300    3085.2146   0.33126754    20.004712  0.018963208         0.05    5.4243077 0.0089260246    89.394993    6696.2912 
  370400    3086.1185   0.33256145    20.009615  0.018963208         0.05    5.4938471 0.0090553794    89.858238    6695.3119 
  370500    3087.0262   0.33178687    20.014667  0.018963208         0.05    4.9475703 0.0088812394    90.745574    6694.3139 
  370600     3087.906   0.33021945    20.019746  0.018963208         0.05    4.8987511 0.0087977196    89.759108    6693.3365 
  370700    3088.7828   0.33038658    20.025001  0.018963208         0.05    5.2237301 0.0088997661     88.85825    6692.3783 
  370800    3089.6904   0.33005914    20.030244  0.018963208         0.05    5.2769485 0.0091818445    89.873334    6691.3983 
  370900    3090.5956   0.33095005    20.035975  0.018963208         0.05    5.5495647 0.0089404672    90.389846    6690.4075 
  371000    3091.4885   0.33135583    20.041535  0.018963208         0.05    4.4891082  0.008949562     88.93252    6689.4473 
  371100     3092.358   0.33073234    20.047649  0.018963208         0.05    5.5886672 0.0087510086    89.310363    6688.4791 
  371200    3093.2187   0.33145606    20.052696  0.018963208         0.05    5.8728061 0.0084160318    90.492991    6687.4859 
  371300    3094.0479   0.33143202    20.057401  0.018963208         0.05    5.9967763 0.0082226934    89.600591    6686.5113 
  371400    3094.8654   0.33150786    20.062572  0.018963208         0.05    6.0785799  0.008114214    88.801754    6685.5537 
  371500    3095.6729   0.33120029    20.067783  0.018963208         0.05     5.761669 0.0081695742    91.455485    6684.5406 
  371600    3096.4748   0.33045459    20.072517  0.018963208         0.05    5.7704881 0.0080678252    88.993469    6683.5787 
  371700    3097.2783   0.32952356    20.077548  0.018963208         0.05    5.7026535 0.0078611673    90.097801    6682.5934 
  371800    3098.1722   0.33073499    20.082688  0.018963208         0.05    5.0378551 0.0092274641    89.659718    6681.6172 
  371900    3099.0875    0.3313625    20.088289  0.018963208         0.05    5.1451901 0.0090673858    88.682453    6680.6617 
  372000    3099.9898   0.33174472    20.093794  0.018963208         0.05    5.1983029 0.0089742719    87.682376    6679.7278 
  372100    3100.8784   0.33158335    20.099207  0.018963208         0.05    5.4837877 0.0084884322    88.351786    6678.7792 
  372200    3101.7528   0.33208821    20.105127  0.018963208         0.05    5.3409336 0.0085922322    89.454802     6677.807 
  372300    3102.5992   0.33193151    20.110528  0.018963208         0.05    5.1571739 0.0084741871    90.895781    6676.8048 
  372400    3103.4576   0.33044423     20.11614  0.018963208         0.05    5.2201132 0.0085263577    89.996693    6675.8211 
  372500    3104.3053   0.33091083    20.120961  0.018963208         0.05    4.6947594 0.0083829933    88.282607    6674.8737 
  372600    3105.1347   0.33030212    20.126006  0.018963208         0.05    4.9024353 0.0082961753    90.025205    6673.8892 
  372700    3105.9602   0.33048636    20.131041  0.018963208         0.05    4.9849824 0.0082045077    89.317685    6672.9195 
  372800    3106.7758   0.33266274     20.13589  0.018963208         0.05    5.0558683 0.0080894305    89.389392    6671.9482 
  372900    3107.5758   0.33070555    20.140758  0.018963208         0.05    5.3625202 0.0086736997    89.236239      6670.98 
  373000    3108.4693   0.33133533    20.146422  0.018963208         0.05    5.1147239 0.0088162433    90.282525    6669.9899 
  373100    3109.3623   0.33201411    20.151491  0.018963208         0.05    5.3750304  0.008856519    89.513489    6669.0158 
  373200    3110.2408   0.33146132    20.155912  0.018963208         0.05    5.4603701 0.0086888511    89.523042    6668.0414 
  373300     3111.078   0.33119441    20.160378  0.018963208         0.05    5.7575844 0.0079450787    90.134181    6667.0542 
  373400    3111.8667   0.33171929    20.165058  0.018963208         0.05    5.8798929 0.0078111411    88.812153    6666.0946 
  373500     3112.651   0.33082871    20.169371  0.018963208         0.05    5.8652172 0.0078121972    90.899346    6665.0916 
  373600    3113.4262   0.33142198    20.174172  0.018963208         0.05    5.9266099 0.0076754617    88.793295    6664.1323 
  373700    3114.1939   0.33090992    20.178371  0.018963208         0.05    5.9574108 0.0076478738    88.653586    6663.1758 
  373800    3114.9494   0.33158825     20.18213  0.018963208         0.05    6.1826608 0.0075737896    90.282952    6662.1852 
  373900    3115.7032   0.32994185    20.187338  0.018963208         0.05    6.2447369 0.0074682527    89.124724    6661.2186 
  374000    3116.4691   0.33235301    20.191631  0.018963208         0.05    5.6085202 0.0081798981    87.780276    6660.2807 
  374100    3117.2805   0.33037732    20.196674  0.018963208         0.05    5.6804478 0.0081597706    88.854222    6659.3196 
  374200    3118.0723   0.33132383    20.201325  0.018963208         0.05      6.21117  0.007836169    90.629534    6658.3216 
  374300    3118.8731   0.33142636    20.205993  0.018963208         0.05    5.6554265  0.008051774    89.811848    6657.3404 
  374400    3119.6873   0.33248688    20.210526  0.018963208         0.05    5.9147659 0.0084228445    90.452712    6656.3458 
  374500    3120.5194   0.33155997    20.215669  0.018963208         0.05    6.1392381 0.0080928094    88.583223    6655.3902 
  374600    3121.3224   0.33091205    20.221016  0.018963208         0.05    6.2361821 0.0080054025    90.061759    6654.4036 
  374700     3122.118   0.33124696    20.225713  0.018963208         0.05    6.2973438 0.0079204353    89.132755    6653.4362 
  374800    3122.9062   0.33136146    20.230798  0.018963208         0.05    6.3702181 0.0078294474    89.057583    6652.4703 
  374900    3123.6849   0.33116572    20.235401  0.018963208         0.05    6.4480864 0.0077353602    88.013065    6651.5265 
  375000    3124.4543   0.33104512    20.239993  0.018963208         0.05    6.5250289 0.0076445814    88.230107     6650.578 
  375100    3125.2148   0.33146313    20.244494  0.018963208         0.05    6.6008543 0.0075568845    88.933557    6649.6144 
  375200    3125.9639   0.33061606    20.249342  0.018963208         0.05    6.7285884 0.0074025401    88.685659     6648.656 
  375300    3126.6971   0.33223701    20.253253  0.018963208         0.05    6.2450532 0.0079829375    89.407455    6647.6823 
  375400    3127.4461   0.33115411    20.257482  0.018963208         0.05    6.0227923 0.0074227167    89.454879    6646.7076 
  375500    3128.1854   0.33079723    20.261802  0.018963208         0.05    6.0501923 0.0073750152    89.194604    6645.7382 
  375600    3128.9271   0.33158788    20.266292  0.018963208         0.05    5.2170295 0.0091494114     89.96737    6644.7528 
  375700    3129.8293   0.33199834    20.271355  0.018963208         0.05    6.1558958 0.0079016324    88.991089    6643.7875 
  375800    3130.6421   0.33122827    20.276421  0.018963208         0.05    5.9751246 0.0081238569    90.633666    6642.7883 
  375900    3131.4465   0.33213855    20.281536  0.018963208         0.05    6.0706691 0.0080025854    88.996792    6641.8228 
  376000    3132.2448   0.33224836    20.286563  0.018963208         0.05     6.159144 0.0079172005     88.01639    6640.8779 
  376100    3133.0329   0.33124468    20.291682  0.018963208         0.05     6.226883 0.0078298999    88.403648    6639.9247 
  376200    3133.8114   0.33102273    20.296183  0.018963208         0.05    6.3209183 0.0076717801    88.403014    6638.9714 
  376300    3134.5609    0.3318358    20.300083  0.018963208         0.05    5.0353994 0.0089196722    89.800387    6637.9888 
  376400    3135.4165   0.33141279    20.305423  0.018963208         0.05     5.085191 0.0080681351    91.219905    6636.9775 
  376500    3136.2346   0.33227004    20.310356  0.018963208         0.05    5.1540126 0.0081931562     90.85896    6635.9733 
  376600    3137.0363   0.33211947    20.314678  0.018963208         0.05    5.2206916 0.0079671502    90.051878    6634.9854 
  376700    3137.8958   0.33141215    20.319854  0.018963208         0.05    5.2229165 0.0091268335    89.476176    6634.0093 
  376800    3138.8163    0.3308823    20.325749  0.018963208         0.05    4.7003173 0.0094205933    89.550125    6633.0315 
  376900    3139.7607   0.33155072    20.330765  0.018963208         0.05    5.0622714  0.009057853    89.842243    6632.0477 
  377000    3140.6563   0.33163558    20.336127  0.018963208         0.05    5.1630257 0.0086255851    89.478905    6631.0713 
  377100    3141.5249   0.33020985    20.341995  0.018963208         0.05    5.2497693 0.0087246509     91.78834    6630.0484 
  377200    3142.3739   0.33067322    20.347107  0.018963208         0.05    5.3346662 0.0084624594    91.380526    6629.0334 
  377300    3143.2158   0.33116707    20.352346  0.018963208         0.05    4.8558212 0.0084118816    89.376686    6628.0589 
  377400    3144.0478    0.3313715    20.357388  0.018963208         0.05    5.6392479 0.0080788727    89.773286    6627.0762 
  377500    3144.8732   0.33070983    20.362957  0.018963208         0.05    5.8411051 0.0082620913    90.513477    6626.0784 
  377600    3145.7071   0.33170028    20.367824  0.018963208         0.05    5.9211812 0.0084138902    88.873708    6625.1141 
  377700    3146.5433   0.33083408    20.372853  0.018963208         0.05    6.0047927  0.008297558    89.577723    6624.1352 
  377800    3147.3679   0.32979028    20.377796  0.018963208         0.05    6.0870813 0.0081872093    88.781886    6623.1726 
  377900    3148.1892   0.33035206    20.382691  0.018963208         0.05    5.9442548 0.0081259182    89.121713     6622.203 
  378000    3148.9857    0.3309956    20.387419  0.018963208         0.05    5.7302779 0.0078324501    89.372363     6621.228 
  378100    3149.7685   0.33027783    20.392459  0.018963208         0.05    4.9850773 0.0078387191    90.274461    6620.2346 
  378200    3150.5503   0.33169246    20.396555  0.018963208         0.05      5.06326 0.0077869319    88.202795    6619.2839 
  378300    3151.3487   0.33089613    20.401952  0.018963208         0.05    6.0104111 0.0082028184    89.874874    6618.2985 
  378400    3152.1556   0.33084701    20.406872  0.018963208         0.05     5.228254  0.008962733     89.44824    6617.3217 
  378500    3152.9615   0.33049086    20.412087  0.018963208         0.05    5.1047092 0.0081388786    91.025027     6616.313 
  378600    3153.7835   0.33158636    20.417016  0.018963208         0.05    5.1461991 0.0080999175    89.248904    6615.3402 
  378700    3154.6604   0.32917355     20.42352  0.018963208         0.05    5.4097465 0.0091300393    90.001463    6614.3519 
  378800    3155.5706   0.33212959    20.428906  0.018963208         0.05    5.5252503 0.0090117893    89.988835    6613.3638 
  378900     3156.436   0.33126881    20.434726  0.018963208         0.05    6.0133624 0.0081874862    90.383302    6612.3677 
  379000    3157.2677   0.33058944     20.44051  0.018963208         0.05    5.9538504 0.0082874962    89.491869    6611.3896 
  379100    3158.0874   0.33091952    20.446167  0.018963208         0.05    6.0495289 0.0081227338    89.467931    6610.4119 
  379200    3158.8948   0.33175499    20.451393  0.018963208         0.05    5.7096309 0.0080550398     90.66125      6609.41 
  379300    3159.6985   0.33093077    20.457078  0.018963208         0.05    5.6694017 0.0083083573     88.99379    6608.4419 
  379400    3160.5192   0.33139315     20.46236  0.018963208         0.05    5.9051955 0.0080281925     89.81279     6607.457 
  379500    3161.3358    0.3317801     20.46725  0.018963208         0.05    5.6904481  0.008663348    91.200943    6606.4443 
  379600    3162.2121   0.33149486    20.473396  0.018963208         0.05    5.4346895 0.0087987281    90.839715    6605.4387 
  379700    3163.0809   0.33096896    20.478514  0.018963208         0.05    5.3495631 0.0086325316    89.728519    6604.4552 
  379800    3163.9174   0.33164525    20.484517  0.018963208         0.05    6.4439738 0.0076409704    90.102988    6603.4642 
  379900     3164.678    0.3308801    20.490095  0.018963208         0.05    6.5157367 0.0075590934     89.19174    6602.4916 
  380000    3165.4297   0.33070781    20.495518  0.018963208         0.05    6.5935488  0.007474359    88.319024     6601.537 
  380100     3166.174   0.33173147    20.500652  0.018963208         0.05    6.6680685 0.0073952528    89.259806    6600.5629 
  380200    3166.9096   0.33070533    20.505525  0.018963208         0.05    6.7568125 0.0073057789    89.065677    6599.5926 
  380300    3167.6409   0.33184169    20.510155  0.018963208         0.05    6.7926135 0.0072870532    89.738656    6598.6086 
  380400    3168.3654   0.33019866    20.515036  0.018963208         0.05    6.8342649 0.0072131809    89.620195    6597.6269 
  380500    3169.0804   0.33090504    20.519559  0.018963208         0.05    6.9964883 0.0070084145    89.016039    6596.6574 
  380600     3169.796   0.33201471    20.523864  0.018963208         0.05    5.6152107 0.0070929458    91.472558    6595.6388 
  380700    3170.5138   0.33091036    20.528606  0.018963208         0.05    5.6258752 0.0071988538    92.622697     6594.598 
  380800    3171.2315   0.33171907    20.533895  0.018963208         0.05    5.4410319 0.0071414662    89.297433    6593.6226 
  380900    3171.9519    0.3314498    20.538369  0.018963208         0.05      5.61048 0.0072570892    89.963569    6592.6336 
  381000    3172.6815   0.33159972    20.542602  0.018963208         0.05    5.6366208 0.0072643241    89.655865    6591.6508 
  381100    3173.4122   0.33180488    20.547206  0.018963208         0.05    5.7975906  0.007356116    92.181452    6590.6183 
  381200    3174.1555   0.33135314    20.551837  0.018963208         0.05    5.7245891 0.0074299238    91.446053    6589.5999 
  381300     3174.955   0.33145112     20.55709  0.018963208         0.05    5.8147939 0.0079203426    90.014675    6588.6097 
  381400    3175.7496   0.33007989    20.562482  0.018963208         0.05    5.2576315 0.0079860589     91.39773    6587.5922 
  381500    3176.5482   0.32980421    20.567349  0.018963208         0.05    5.4997643 0.0080008234    91.721238    6586.5683 
  381600    3177.3587   0.33078276    20.572217  0.018963208         0.05    5.6057695 0.0086080256    90.924806    6585.5599 
  381700    3178.2236   0.33049577    20.577552  0.018963208         0.05    5.6128563 0.0084791147    90.769631    6584.5545 
  381800     3179.074   0.33151527      20.5827  0.018963208         0.05    5.2551526 0.0087833162    89.671621    6583.5709 
  381900    3179.9713    0.3303285      20.5883  0.018963208         0.05    5.1933622 0.0089446618    89.242846    6582.5959 
  382000     3180.855   0.33080437    20.594307  0.018963208         0.05    5.1097067 0.0089034275    89.049963    6581.6248 
  382100    3181.7215    0.3309662    20.599175  0.018963208         0.05    5.2644381 0.0089025791    89.959691    6580.6352 
  382200    3182.6096   0.33091363     20.60445  0.018963208         0.05    5.3366273 0.0085740353    89.418968    6579.6564 
  382300    3183.4756   0.32930679     20.60993  0.018963208         0.05    5.3657259  0.009063774    89.636092    6578.6731 
  382400    3184.3834   0.33141952    20.615277  0.018963208         0.05    5.3922776 0.0091101383    89.340039    6577.6958 
  382500    3185.2913   0.33190545    20.620341  0.018963208         0.05    5.4086272 0.0090633644    89.786989    6576.7094 
  382600    3186.1943   0.33126857    20.625988  0.018963208         0.05    5.5149098 0.0089219913    88.766291    6575.7436 
  382700    3187.0692   0.33197222    20.631713  0.018963208         0.05    5.4046756  0.009042398    89.636015      6574.76 
  382800    3187.9406   0.33055533    20.638564  0.018963208         0.05     5.292775 0.0082341131     90.36525    6573.7619 
  382900    3188.7607   0.33190286    20.643669  0.018963208         0.05    5.5883089 0.0081966737    89.279566    6572.7855 
  383000    3189.5833   0.33060863    20.649072  0.018963208         0.05    5.8616647 0.0083653153    90.042405    6571.7936 
  383100    3190.4225   0.33142408    20.654611  0.018963208         0.05    5.6961505 0.0083524547    89.531125    6570.8119 
  383200    3191.2473   0.33128125    20.660019  0.018963208         0.05    5.8185206 0.0085280239    89.149048    6569.8379 
  383300    3192.0878    0.3304386    20.666484  0.018963208         0.05    5.8564564 0.0084582403    90.134259     6568.844 
  383400    3192.9239   0.32979999    20.673047  0.018963208         0.05    6.0214095  0.008184114    88.810573    6567.8767 
  383500    3193.7369   0.33076757    20.678649  0.018963208         0.05    5.3382713 0.0084315265    90.083365    6566.8837 
  383600    3194.5315   0.33177076    20.684101  0.018963208         0.05    5.7172959 0.0074077106     91.52102    6565.8626 
  383700     3195.324   0.33211235    20.689208  0.018963208         0.05    5.4916852 0.0079696859    89.970863    6564.8717 
  383800    3196.1118   0.33206158    20.694173  0.018963208         0.05    4.9422567 0.0078991422    89.845323    6563.8833 
  383900    3196.8879   0.33164221    20.700057  0.018963208         0.05    5.8351486 0.0077946002    90.017921    6562.8914 
  384000    3197.6618   0.33059637    20.705695  0.018963208         0.05    5.8867385   0.00748887    89.021744    6561.9193 
  384100    3198.4491   0.32991351    20.711014  0.018963208         0.05    5.9497187 0.0081182144    89.995477    6560.9277 
  384200    3199.2592   0.33164895    20.715942  0.018963208         0.05    5.9263737 0.0080807499    88.771702    6559.9606 
  384300    3200.0543   0.33109423    20.721169  0.018963208         0.05     5.573359 0.0080768403    89.567623    6558.9774 
  384400    3200.8707    0.3315641    20.726639  0.018963208         0.05    5.6656368 0.0082431331    89.723989    6557.9909 
  384500     3201.694   0.33063536    20.731856  0.018963208         0.05    5.7709929 0.0081865607    89.064012    6557.0176 
  384600    3202.5156   0.33266211    20.736791  0.018963208         0.05    5.1385152 0.0087157732    90.309526    6556.0195 
  384700    3203.3864   0.33020679    20.742809  0.018963208         0.05    5.2260089 0.0085092732    88.865894    6555.0501 
  384800     3204.244   0.32981029     20.74856  0.018963208         0.05    5.2901806 0.0085587932    89.682474    6554.0642 
  384900    3205.1235   0.33039499    20.753402  0.018963208         0.05    5.2993307 0.0090410858    89.380286    6553.0843 
  385000    3206.0012   0.32982464    20.758336  0.018963208         0.05    6.0647553 0.0081413662    87.725693     6552.138 
  385100    3206.8511   0.33001609    20.764098  0.018963208         0.05    5.7976649 0.0085368073    91.405339    6551.1184 
  385200    3207.6965   0.32961157     20.77056  0.018963208         0.05    5.8998151 0.0084048974    89.538407    6550.1351 
  385300     3208.532   0.33062667    20.775909  0.018963208         0.05    5.9731481 0.0083049267    88.999738    6549.1625 
  385400    3209.3189   0.33114768    20.781381  0.018963208         0.05    6.0476387 0.0073703612    89.502429    6548.1798 
  385500    3210.1257   0.33079119    20.786007  0.018963208         0.05    6.1325718 0.0080909822    88.851304      6547.21 
  385600    3210.9301    0.3305612    20.790566  0.018963208         0.05    6.2147233 0.0079855417    88.766667    6546.2419 
  385700    3211.7234   0.33088413    20.795209  0.018963208         0.05    6.3006389 0.0078784607    88.961474    6545.2698 
  385800    3212.5053   0.32966209    20.800269  0.018963208         0.05     6.402455 0.0077605697    89.009144    6544.2967 
  385900    3213.2742   0.33063007    20.804828  0.018963208         0.05    6.5238644 0.0076223108    89.197639    6543.3197 
  386000    3214.0326   0.33126453    20.809333  0.018963208         0.05     6.599354 0.0075359368    87.249296    6542.3824 
  386100    3214.7776   0.33026296    20.814288  0.018963208         0.05    6.6721842 0.0074457971     90.75011    6541.3747 
  386200    3215.5201   0.32987978    20.818798  0.018963208         0.05    6.7279638  0.007385172    88.588162    6540.4097 
  386300    3216.2551   0.33019622    20.824225  0.018963208         0.05    6.8013512 0.0073064676     88.35843    6539.4493 
  386400    3216.9823   0.33009525    20.828729  0.018963208         0.05    6.8740702 0.0072301031    89.798926      6538.46 
  386500    3217.7015   0.33169632      20.8333  0.018963208         0.05    6.9501883 0.0071502242    89.073451     6537.485 
  386600    3218.4133   0.33141563    20.838111  0.018963208         0.05    7.0213665  0.007078607     88.19673    6536.5277 
  386700     3219.118   0.33115353     20.84288  0.018963208         0.05    7.0950141 0.0070051491    89.127736    6535.5514 
  386800    3219.8155   0.33201692    20.847522  0.018963208         0.05    7.1700463 0.0069314382    88.450814    6534.5888 
  386900    3220.5925   0.33159864    20.852421  0.018963208         0.05    5.5265424 0.0086228017    88.915044    6533.6166 
  387000    3221.4527   0.33180467    20.857472  0.018963208         0.05    5.6050445 0.0085674963    88.257361    6532.6577 
  387100    3222.3051   0.32998201    20.862344  0.018963208         0.05    5.6354641 0.0085073305    90.180188    6531.6604 
  387200    3223.1593   0.32999059    20.867767  0.018963208         0.05    5.6341271 0.0084901719    89.729556    6530.6719 
  387300    3224.0036   0.33094343    20.872959  0.018963208         0.05    5.7114478 0.0083805256    89.409685    6529.6896 
  387400    3224.8371    0.3311239    20.877407  0.018963208         0.05    5.7824981  0.008277603    88.328305    6528.7289 
  387500    3225.6815   0.33035208     20.88261  0.018963208         0.05    5.2265941 0.0094335189    90.135324    6527.7322 
  387600    3226.5931   0.33213905    20.888209  0.018963208         0.05    5.3724184 0.0091552234    89.267063    6526.7526 
  387700    3227.5059   0.33065936    20.894712  0.018963208         0.05    5.0493509 0.0095646485    90.259541    6525.7534 
  387800    3228.4565    0.3309953     20.90085  0.018963208         0.05    4.7045324 0.0093547875    89.257185    6524.7737 
  387900    3229.4207   0.33095304     20.90753  0.018963208         0.05     4.873043 0.0095688765    90.310498    6523.7734 
  388000    3230.3999   0.32993525     20.91317  0.018963208         0.05    4.9541021 0.0098466998    90.204509    6522.7751 
  388100    3231.3276   0.33183831    20.917868  0.018963208         0.05    5.1201173 0.0091209434    90.040124      6521.78 
  388200    3232.2359   0.33216906    20.923336  0.018963208         0.05     5.129595 0.0090103807     88.55803     6520.814 
  388300    3233.1248   0.33028801    20.929258  0.018963208         0.05    5.2894606 0.0088490331    89.184362    6519.8355 
  388400    3234.0063   0.32994416    20.934469  0.018963208         0.05    5.2807242  0.008742354     88.61854    6518.8682 
  388500    3234.8592   0.33088052    20.940254  0.018963208         0.05    5.2967637 0.0085135936    89.242998    6517.8884 
  388600    3235.6967   0.33072794    20.945835  0.018963208         0.05    5.3019225 0.0081694528    89.587194    6516.9017 
  388700    3236.4849   0.33029316    20.950645  0.018963208         0.05    5.2166954 0.0077716094    90.317265    6515.9007 
  388800    3237.3459   0.33085219    20.955995  0.018963208         0.05    6.0631825 0.0080307827    90.169041    6514.9026 
  388900    3238.2143   0.33122158    20.961673  0.018963208         0.05    5.1321023 0.0090657703    89.436167    6513.9187 
  389000     3239.106   0.33140161    20.967662  0.018963208         0.05    5.2172016 0.0093146034    89.488909    6512.9337 
  389100    3240.0321   0.33105436    20.973883  0.018963208         0.05    5.3604432 0.0092694539     90.52936    6511.9285 
  389200    3240.8658   0.32997141     20.97885  0.018963208         0.05    6.1517546 0.0079545925    89.510929    6510.9429 
  389300    3241.6748   0.33000331     20.98406  0.018963208         0.05    5.6931246 0.0083089436    90.905789    6509.9304 
  389400     3242.497   0.33021821    20.989871  0.018963208         0.05     6.066806 0.0077934845    88.187069     6508.971 
  389500    3243.2958   0.33020847    20.994924  0.018963208         0.05    5.9371106  0.007962676    91.188372     6507.953 
  389600    3244.0851   0.33126763     20.99966  0.018963208         0.05    6.0253131 0.0078128526    90.116888    6506.9554 
  389700    3244.9099   0.33092421    21.005112  0.018963208         0.05    5.7002747 0.0085111595    88.631817    6505.9869 
  389800    3245.7218   0.33033325    21.009801  0.018963208         0.05    6.5640176 0.0073268493    89.301102    6505.0051 
  389900    3246.4502   0.33119451    21.013977  0.018963208         0.05    6.7026401 0.0071355961    89.234872    6504.0244 
  390000    3247.1628    0.3306574    21.018473  0.018963208         0.05    6.7100973 0.0072017855    89.472893    6503.0391 
  390100    3247.8816   0.33065265    21.023047  0.018963208         0.05     6.519954 0.0072787305    89.735277    6502.0485 
  390200    3248.5995    0.3308768    21.027769  0.018963208         0.05    6.4651309 0.0071522239    89.631188      6501.06 
  390300    3249.3115   0.33066668     21.03296  0.018963208         0.05    6.5815985 0.0070299445    88.594599    6500.0917 
  390400    3250.0355   0.33124905    21.038254  0.018963208         0.05    4.8695986 0.0093621447    90.792542    6499.0807 
  390500    3250.9387   0.33076435    21.044176  0.018963208         0.05    5.1337012 0.0082516188    90.392145    6498.0773 
  390600    3251.7595    0.3316919    21.049053  0.018963208         0.05    5.2234148  0.008144365    88.481079    6497.1111 
  390700    3252.6177   0.33020507    21.054327  0.018963208         0.05    5.4894259 0.0088216235    89.253196    6496.1296 
  390800    3253.4767   0.33141802    21.060288  0.018963208         0.05     5.958242 0.0082717159    90.679361    6495.1205 
  390900    3254.3023   0.33096812    21.066196  0.018963208         0.05    5.9626119 0.0082052178    88.992657     6494.144 
  391000    3255.1352   0.33181353    21.072113  0.018963208         0.05    5.6583549 0.0085191964    89.008294     6493.167 
  391100    3255.9867   0.33029529    21.077703  0.018963208         0.05    5.6129097  0.008424768    91.103223    6492.1498 
  391200    3256.8284   0.32985034    21.082664  0.018963208         0.05    5.6805231 0.0083464278    89.983236    6491.1538 
  391300    3257.6304   0.33088255    21.088551  0.018963208         0.05    5.3417485 0.0079594266    90.218751    6490.1532 
  391400    3258.4513   0.33027912    21.093816  0.018963208         0.05     5.423838 0.0087073707    90.189632    6489.1531 
  391500    3259.3156   0.33030309    21.099415  0.018963208         0.05    5.5155589 0.0085826582    89.002174     6488.176 
  391600    3260.1637   0.33072782    21.104956  0.018963208         0.05    5.0030305 0.0084206382    89.292737    6487.1931 
  391700    3261.0026   0.33099291    21.110847  0.018963208         0.05    5.6213196 0.0083263255    89.981055    6486.1968 
  391800    3261.8391   0.33068058    21.116251  0.018963208         0.05    4.6658599 0.0085036825    91.165935    6485.1781 
  391900    3262.6916   0.32996528    21.121951  0.018963208         0.05    5.0790216 0.0085523316    92.359816    6484.1373 
  392000    3263.5713    0.3308438    21.127525  0.018963208         0.05    5.1752717 0.0094229628     90.04546    6483.1396 
  392100    3264.5067   0.33126676    21.133274  0.018963208         0.05    4.8056474 0.0093088404    89.028169    6482.1616 
  392200    3265.4325   0.33018153    21.138604  0.018963208         0.05    5.2112397 0.0089696013    88.615021    6481.1916 
  392300    3266.3577   0.33126747    21.143802  0.018963208         0.05    5.2672997 0.0093625189    90.443135    6480.1862 
  392400    3267.2735   0.33002728    21.149458  0.018963208         0.05    5.3566546 0.0089900407    88.067933    6479.2269 
  392500    3268.1745   0.33062183     21.15499  0.018963208         0.05    5.0789112 0.0089598281    90.162644    6478.2267 
  392600    3269.0831   0.32988474    21.160655  0.018963208         0.05    5.0579135 0.0090560781    91.301019     6477.205 
  392700    3269.9832   0.33079571    21.166395  0.018963208         0.05    5.3390279 0.0090183006    90.610151    6476.1962 
  392800    3270.9022   0.33045401     21.17268  0.018963208         0.05    4.9638597 0.0092099075     90.39271    6475.1915 
  392900    3271.8043   0.33076906    21.178688  0.018963208         0.05    6.3274085 0.0076652386    89.004875    6474.2134 
  393000    3272.6653   0.33049151    21.184645  0.018963208         0.05    5.1422198 0.0087919551    90.043681    6473.2152 
  393100    3273.5267   0.33063854    21.190762  0.018963208         0.05    5.3495497 0.0082419831    90.046368    6472.2168 
  393200    3274.3549   0.32951957    21.196184  0.018963208         0.05     6.310817 0.0076532196    90.893555    6471.2025 
  393300     3275.115   0.33170912    21.201046  0.018963208         0.05    6.3162679 0.0075748656    89.558386    6470.2134 
  393400    3275.8698   0.33075879    21.205699  0.018963208         0.05    6.3634285 0.0075537809    88.957361    6469.2359 
  393500    3276.6149   0.33054432    21.211275  0.018963208         0.05    6.3986261 0.0073615905    89.292167    6468.2518 
  393600    3277.3474     0.331379    21.216133  0.018963208         0.05    6.4351674 0.0073156524    90.138327    6467.2514 
  393700    3278.0747   0.33112262    21.219954  0.018963208         0.05    6.5494262 0.0071703609    88.544719    6466.2817 
  393800    3278.7894   0.33009035    21.224859  0.018963208         0.05    5.8829696 0.0082479218    91.339134    6465.2588 
  393900    3279.5625   0.32983903    21.229933  0.018963208         0.05    5.9577552 0.0077066308    91.987089    6464.2239 
  394000    3280.3313   0.33019993    21.234509  0.018963208         0.05    5.7126037 0.0069277576    90.114274    6463.2238 
  394100    3281.0315   0.33089612     21.23865  0.018963208         0.05    6.3018919 0.0064992815    91.692745    6462.1943 
  394200    3281.6799   0.33031918    21.242531  0.018963208         0.05    6.3541707 0.0064632366    89.752174    6461.2009 
  394300    3282.3205   0.33039286    21.246178  0.018963208         0.05    6.4280511 0.0063186218    89.756457    6460.2074 
  394400    3282.9545   0.33064487    21.250173  0.018963208         0.05    7.6704062 0.0061198912    90.169138    6459.2061 
  394500    3283.6968   0.33098085    21.254639  0.018963208         0.05    5.5368305 0.0085072354     91.28552    6458.1838 
  394600    3284.5293   0.33036697    21.260516  0.018963208         0.05    5.2907055 0.0083818149     89.94067    6457.1867 
  394700     3285.375    0.3319845    21.265895  0.018963208         0.05    5.4648594 0.0084921235      90.7474    6456.1743 
  394800    3286.2651   0.33188622    21.271473  0.018963208         0.05    5.3529555 0.0090421488    91.165678    6455.1541 
  394900    3287.1531   0.33071654    21.277515  0.018963208         0.05    5.4481513  0.008880869    90.658055    6454.1433 
  395000    3287.9952   0.33161685     21.28254  0.018963208         0.05     5.525885  0.008775472    89.533762    6453.1537 
  395100    3288.8624   0.33172935    21.287842  0.018963208         0.05    5.6003103 0.0086716609    89.987618    6452.1554 
  395200    3289.6981   0.33114227    21.292344  0.018963208         0.05    5.7823527  0.007919765    89.767503    6451.1612 
  395300    3290.4868   0.33155567    21.296513  0.018963208         0.05    6.2487282 0.0078863916    90.113054    6450.1604 
  395400    3291.2709   0.33100931    21.301666  0.018963208         0.05    6.3262354  0.007787185     88.99379    6449.1809 
  395500    3292.0434   0.33020374     21.30618  0.018963208         0.05    6.4354047 0.0076657623    88.998454    6448.2012 
  395600    3292.8033    0.3314552    21.310227  0.018963208         0.05    6.2454826 0.0077903675    91.329031    6447.1777 
  395700    3293.5796   0.33091252    21.315093  0.018963208         0.05    6.3097029 0.0077137603    89.620444     6446.186 
  395800    3294.3517   0.33119298    21.319693  0.018963208         0.05     5.249923 0.0078402147     89.34689    6445.1994 
  395900    3295.1419   0.32945123    21.324622  0.018963208         0.05    5.3289202 0.0078547565    90.647279    6444.1883 
  396000    3295.9362   0.33041993    21.329153  0.018963208         0.05    5.4031631 0.0081877308    89.308537    6443.2023 
  396100     3296.806   0.33047793    21.334636  0.018963208         0.05     5.326506 0.0090191398    90.398652    6442.1957 
  396200    3297.6875   0.33078652    21.340587  0.018963208         0.05    5.4829704 0.0086686505    89.938491    6441.1977 
  396300    3298.5487   0.32950119    21.346419  0.018963208         0.05    5.5738357 0.0084299663    89.828621    6440.2017 
  396400    3299.3928    0.3314527     21.35166  0.018963208         0.05    5.6541464  0.008308094    90.253772    6439.1976 
  396500    3300.2197    0.3309559     21.35669  0.018963208         0.05    5.7377083 0.0079218307     88.45018    6438.2279 
  396600    3301.0144   0.33124708    21.361734  0.018963208         0.05    5.8166217 0.0079469444    90.852249    6437.2126 
  396700    3301.8102   0.32990932    21.365796  0.018963208         0.05    6.0739129 0.0079069671    89.778628    6436.2173 
  396800    3302.6138   0.33142291    21.370321  0.018963208         0.05    5.8803312 0.0081088356    90.705579    6435.2047 
  396900    3303.4209   0.33071008    21.375094  0.018963208         0.05    5.9634716 0.0082521676    90.155881    6434.2022 
  397000    3304.2447   0.33109588    21.379902  0.018963208         0.05    5.9145595  0.008238047    89.196197    6433.2178 
  397100    3305.0633   0.33138235    21.384523  0.018963208         0.05    5.9927807 0.0081268406    88.028933    6432.2558 
  397200    3305.8714   0.33266367    21.389737  0.018963208         0.05    6.0377802 0.0080310923     89.76806    6431.2604 
  397300    3306.6671   0.33071126    21.394677  0.018963208         0.05    4.9436174  0.008931013     90.21648    6430.2565 
  397400    3307.5553   0.33090973    21.400648  0.018963208         0.05     5.150258 0.0088178961    89.671621    6429.2628 
  397500    3308.4418   0.33089432    21.406695  0.018963208         0.05    5.2385279 0.0089308869    89.994994     6428.263 
  397600    3309.3268   0.33176456    21.412459  0.018963208         0.05    5.3389634 0.0088371552    89.064958    6427.2807 
  397700    3310.2042   0.32931294    21.418608  0.018963208         0.05    5.4248823 0.0087087987    89.605568     6426.288 
  397800    3311.0668   0.33144568    21.423718  0.018963208         0.05    5.7222212 0.0087063678    89.814656    6425.2914 
  397900    3311.9221   0.33179861    21.428944  0.018963208         0.05    5.8196019 0.0084252527    90.338644    6424.2849 
  398000    3312.7602   0.33083354    21.434934  0.018963208         0.05    5.6410758 0.0083897133    90.510684    6423.2752 
  398100    3313.5923   0.33033191    21.440476  0.018963208         0.05    5.7375308 0.0081633007    89.158826    6422.2907 
  398200    3314.4256   0.33078808    21.446069  0.018963208         0.05     5.559691  0.008507868    90.308787    6421.2847 
  398300    3315.2659   0.33089026    21.451982  0.018963208         0.05     5.403762 0.0084174271    89.941403    6420.2854 
  398400    3316.1442   0.33095601    21.458198  0.018963208         0.05    5.4639183 0.0089043912    89.408561     6419.296 
  398500    3317.0404   0.32979238    21.464049  0.018963208         0.05    5.5179854 0.0089302701    90.595394    6418.2845 
  398600    3317.8709   0.33055587    21.469699  0.018963208         0.05    6.1199151 0.0080274596    90.621975    6417.2724 
  398700     3318.667   0.33115773    21.474985  0.018963208         0.05    6.0475848 0.0079371825     91.18631      6416.25 
  398800    3319.4563   0.33329646     21.47999  0.018963208         0.05    6.1256102 0.0078467123    89.019439    6415.2678 
  398900    3320.2368   0.33140514    21.485484  0.018963208         0.05    6.2175924 0.0077359093    89.616825    6414.2742 
  399000    3321.0175   0.33078896    21.491104  0.018963208         0.05    6.1457687 0.0078026719    88.860377    6413.2949 
  399100    3321.7937   0.33023423    21.496007  0.018963208         0.05    6.2244709 0.0077134609    89.223976    6412.3086 
  399200    3322.5611   0.33219217    21.500865  0.018963208         0.05      6.30297 0.0076255874    89.921426    6411.3092 
  399300    3323.3197   0.33167347    21.505745  0.018963208         0.05    6.3763612 0.0075427594    89.019288    6410.3266 
  399400    3324.0691   0.33121628    21.510447  0.018963208         0.05    6.4591673 0.0074358284      89.6291    6409.3325 
  399500    3324.8003   0.33120735     21.51501  0.018963208         0.05    6.5064654 0.0071883857    90.194907    6408.3278 
  399600    3325.5419   0.33067087     21.51974  0.018963208         0.05     5.455284 0.0077145784    90.967736    6407.3089 
  399700    3326.3265   0.33078273    21.525103  0.018963208         0.05    5.4770475 0.0078556742    91.104964    6406.2875 
  399800    3327.1072    0.3314908    21.530134  0.018963208         0.05    5.4084075 0.0077853227    90.243655    6405.2818 
  399900    3327.8831   0.33131593    21.534548  0.018963208         0.05    5.4861265 0.0077396203    89.279186    6404.2939 
  400000    3328.6537   0.33143077    21.539179  0.018963208         0.05    5.5472313 0.0077688328     88.50748    6403.3207 
  400100     3329.477   0.33085018     21.54486  0.018963208         0.05    5.1236256 0.0084274129    91.023704    6402.3005 
  400200    3330.3362   0.33174906    21.549859  0.018963208         0.05    5.2121253 0.0088938221     90.23886    6401.2947 
  400300    3331.2297   0.33119471    21.555216  0.018963208         0.05    5.3544732 0.0090696221      91.1548    6400.2721 
  400400    3332.1266   0.33008238    21.560884  0.018963208         0.05    5.3890363 0.0088207846     90.40896     6399.263 
  400500    3332.9992   0.33100174    21.566401  0.018963208         0.05    5.5294031 0.0087179859    89.768137    6398.2657 
  400600    3333.8645   0.33216893    21.571398  0.018963208         0.05    5.6045222 0.0085940737    89.886431    6397.2661 
  400700    3334.7165   0.33130406    21.576237  0.018963208         0.05    5.8159638 0.0085086173    90.186374     6396.261 
  400800    3335.5769   0.33103672    21.582129  0.018963208         0.05    4.9027867 0.0087874582    91.225301    6395.2369 
  400900     3336.522    0.3311539    21.588341  0.018963208         0.05    5.0662506 0.0095949439      90.7881    6394.2206 
  401000    3337.4557   0.33175554    21.593975  0.018963208         0.05    5.0827199 0.0092402185    89.379791    6393.2303 
  401100    3338.3717   0.33217239    21.599872  0.018963208         0.05    5.2672184  0.008987728    89.731975    6392.2333 
  401200    3339.2429   0.33168732    21.605944  0.018963208         0.05    5.4684831 0.0085722986    90.821815    6391.2163 
  401300    3340.1105   0.33244199    21.610293  0.018963208         0.05    5.6014467 0.0086695952    90.791559    6390.1999 
  401400    3340.9742     0.331657    21.615756  0.018963208         0.05    5.3720707 0.0085813758    89.669052    6389.2039 
  401500    3341.8269   0.33099315    21.621059  0.018963208         0.05    5.4010184 0.0087284886    90.382815    6388.1947 
  401600    3342.6724   0.33229259    21.626262  0.018963208         0.05    6.0683241 0.0081867762    88.552402    6387.2196 
  401700    3343.5741   0.33168715    21.631622  0.018963208         0.05    4.9878056 0.0092258823    89.607176    6386.2246 
  401800    3344.4666   0.33231936    21.637089  0.018963208         0.05    5.4072321 0.0088420766    89.583979      6385.23 
  401900    3345.3352   0.33087915    21.643098  0.018963208         0.05    5.5082884 0.0086921364    89.323753    6384.2401 
  402000    3346.2414   0.33205063     21.64803  0.018963208         0.05    4.7865762 0.0092235771    89.162162    6383.2532 
  402100    3347.1507   0.33225431    21.652791  0.018963208         0.05    4.8502417 0.0093747365    90.277803    6382.2457 
  402200      3348.09   0.33012331    21.658405  0.018963208         0.05    4.9318215 0.0096118772    92.343874    6381.2012 
  402300    3349.0394   0.33050929    21.664299  0.018963208         0.05    5.2468402 0.0094307625    90.272498    6380.1937 
  402400    3349.9797   0.33185316     21.66994  0.018963208         0.05    5.2073127  0.009453131    89.797561    6379.1947 
  402500    3350.9075   0.33246602    21.674777  0.018963208         0.05    5.2994121 0.0091870856    90.904961    6378.1756 
  402600     3351.788   0.33200107    21.680494  0.018963208         0.05    5.5118111 0.0089754073    91.090679    6377.1532 
  402700    3352.6617   0.33024682    21.685787  0.018963208         0.05     5.668864 0.0086776093    90.807304    6376.1357 
  402800    3353.5273   0.33166631    21.690865  0.018963208         0.05    5.8664347 0.0084028715    89.443204    6375.1432 
  402900    3354.3579   0.33138399    21.696511  0.018963208         0.05    5.6845008 0.0083569505    91.088206    6374.1206 
  403000    3355.1726    0.3314154    21.701411  0.018963208         0.05    5.7780223 0.0077699467    88.866383    6373.1387 
  403100    3355.9471   0.33121597    21.706651  0.018963208         0.05    5.8554742 0.0077130566    89.417443    6372.1464 
  403200    3356.7163   0.33155023    21.711952  0.018963208         0.05    5.9436215 0.0076697003    89.607176    6371.1506 
  403300    3357.4808   0.33045259    21.717308  0.018963208         0.05    5.9826451  0.007614851    88.732789     6370.171 
  403400    3358.2542    0.3323521    21.721962  0.018963208         0.05    6.0599866 0.0081819181    88.735248    6369.1912 
  403500    3359.0676   0.33167906    21.726627  0.018963208         0.05    6.1413733 0.0080751789    88.400052    6368.2177 
  403600    3359.8926   0.33068124    21.732567  0.018963208         0.05    5.0437623 0.0088119615    89.912212     6367.216 
  403700    3360.7701   0.33064984    21.737923  0.018963208         0.05    5.2243458 0.0084033424    90.254258     6366.208 
  403800     3361.648   0.33085556    21.743479  0.018963208         0.05    5.2637111 0.0089961375    89.807963    6365.2081 
  403900    3362.5413   0.33046103    21.749136  0.018963208         0.05    5.3530419 0.0089295696     89.92935     6364.206 
  404000    3363.4444    0.3316137    21.753928  0.018963208         0.05    5.9539427 0.0078073459    88.555449    6363.2292 
  404100    3364.2308   0.33131947     21.75927  0.018963208         0.05    6.1799726 0.0079068837    88.325496    6362.2567 
  404200    3365.0105   0.32972473    21.764713  0.018963208         0.05    6.0809766 0.0077646613    91.043837    6361.2343 
  404300     3365.762   0.32966191    21.769256  0.018963208         0.05    5.8498952 0.0074346982     90.04198    6360.2298 
  404400    3366.4919   0.33123193    21.774075  0.018963208         0.05     6.065366 0.0071361148    90.611795     6359.215 
  404500    3367.2033   0.33015012    21.777616  0.018963208         0.05    6.5580588 0.0071364118    90.226727    6358.2071 
  404600    3367.9158   0.33025919    21.782294  0.018963208         0.05     6.323022 0.0072593825    90.708306    6357.1905 
  404700    3368.6395   0.32938485    21.787768  0.018963208         0.05     6.353194 0.0072077712    90.515997    6356.1773 
  404800     3369.355   0.33058904    21.792426  0.018963208         0.05    6.3463828 0.0070992928    89.259502    6355.1869 
  404900    3370.0682   0.33145761     21.79728  0.018963208         0.05    5.1358054 0.0070025786    89.412964    6354.1937 
  405000     3370.758   0.33055355     21.80193  0.018963208         0.05    5.2139609 0.0065987919     89.93178    6353.1909 
  405100     3371.505   0.33151184    21.806999  0.018963208         0.05    5.0954647  0.008162898     88.65115    6352.2116 
  405200    3372.3085   0.33108755    21.812003  0.018963208         0.05    5.1502856 0.0085973621    90.838161    6351.1924 
  405300    3373.1636   0.33103126    21.817156  0.018963208         0.05    5.0917757 0.0086233383    89.573381    6350.1959 
  405400    3374.0165   0.33062309    21.821568  0.018963208         0.05    5.1746586 0.0082679898    88.768564    6349.2142 
  405500    3374.8588   0.33090651    21.827148  0.018963208         0.05    5.2570089 0.0082735395    90.219721    6348.2059 
  405600    3375.7033   0.33071444    21.832566  0.018963208         0.05    5.3610384 0.0088869891    90.254006     6347.197 
  405700     3376.585   0.33180478     21.83756  0.018963208         0.05    5.4175173 0.0087716145    89.831372    6346.1956 
  405800    3377.4688   0.33067086    21.843431  0.018963208         0.05     5.504905 0.0088940742    89.846843    6345.1939 
  405900     3378.347   0.33153699    21.849434  0.018963208         0.05    5.5927253 0.0087600283    88.120258     6344.224 
  406000    3379.2171    0.3312124    21.854258  0.018963208         0.05    5.6797406 0.0086310585    88.558965    6343.2459 
  406100    3380.0746    0.3302814    21.860808  0.018963208         0.05     5.767423 0.0085042205    87.858036    6342.2808 
  406200    3380.9509   0.33137353    21.866582  0.018963208         0.05    5.4163778 0.0090050545    89.561904     6341.284 
  406300    3381.8341   0.33080577    21.872191  0.018963208         0.05    5.7122096 0.0086583895    90.189457    6340.2758 
  406400    3382.7168   0.33053244    21.877002  0.018963208         0.05     5.522238 0.0088621716    89.697683    6339.2764 
  406500    3383.5948    0.3292776    21.881587  0.018963208         0.05    5.3845801 0.0086691794    88.407803    6338.3007 
  406600    3384.4769   0.32980489    21.885977  0.018963208         0.05    5.4895181 0.0087809157    89.908088    6337.2974 
  406700    3385.3562   0.33107178    21.891474  0.018963208         0.05    5.5536623 0.0080058361    89.331971    6336.3045 
  406800    3386.1735   0.33037562     21.89617  0.018963208         0.05    6.2881636 0.0075028484    89.689876    6335.3051 
  406900     3386.929   0.33112846    21.900319  0.018963208         0.05    6.2996817 0.0074788955    89.724738    6334.3049 
  407000    3387.7584   0.33128552    21.905315  0.018963208         0.05    5.0235226 0.0081147498    87.875376    6333.3389 
  407100    3388.6034   0.33084741    21.910299  0.018963208         0.05    5.0465458 0.0084987265    91.747261    6332.3028 
  407200    3389.4496   0.33124447    21.916144  0.018963208         0.05    5.2885545 0.0084117294    89.530399     6331.306 
  407300    3390.2863   0.33042133    21.920882  0.018963208         0.05    5.1132973 0.0083124908    88.574824    6330.3266 
  407400    3391.1128   0.33109291    21.925685  0.018963208         0.05    5.1919461 0.0082083975    89.305495    6329.3338 
  407500     3391.933   0.33043148    21.931278  0.018963208         0.05    5.2239769 0.0081668908    89.008426    6328.3463 
  407600    3392.7455   0.33054669    21.936498  0.018963208         0.05    5.3026485 0.0079803355    88.344919    6327.3711 
  407700    3393.6186   0.33193671    21.941868  0.018963208         0.05    4.7693312 0.0088733181    89.559992    6326.3734 
  407800    3394.5556   0.33003276    21.947033  0.018963208         0.05    4.8640081  0.009618959    88.656884    6325.3922 
  407900    3395.5011   0.33139993     21.95297  0.018963208         0.05    4.9661776 0.0090180908    88.820917    6324.4079 
  408000    3396.4322   0.33010971    21.958378  0.018963208         0.05    5.0569174 0.0090608663    88.563845    6323.4283 
  408100    3397.3403   0.33050754    21.963744  0.018963208         0.05    5.3004621 0.0091781942    89.121789    6322.4383 
  408200     3398.245   0.33093533    21.969774  0.018963208         0.05    5.4971417 0.0089726094    89.257982    6321.4458 
  408300    3399.1346   0.32999485    21.975306  0.018963208         0.05    5.5860943 0.0088334802    88.667886    6320.4641 
  408400    3400.0114   0.33098315    21.981365  0.018963208         0.05     5.675972 0.0086780975    88.787712      6319.48 
  408500    3400.8761   0.33063926    21.986486  0.018963208         0.05    5.6539559 0.0086465535    89.146016    6318.4894 
  408600    3401.7015    0.3307337    21.991257  0.018963208         0.05    5.7367012 0.0083334372    91.460769    6317.4576 
  408700    3402.5313   0.32932339    21.996335  0.018963208         0.05    5.9263541 0.0081852955    88.617136    6316.4765 
  408800    3403.3487   0.33089354    22.001755  0.018963208         0.05    5.7668404 0.0083092775    89.495554    6315.4793 
  408900    3404.2593   0.33118808     22.00727  0.018963208         0.05    4.8717468  0.009262099    90.181487    6314.4698 
  409000    3405.1846   0.33100845    22.012522  0.018963208         0.05    5.3496937 0.0091184884    88.566968    6313.4894 
  409100    3406.1018   0.32987075    22.018251  0.018963208         0.05    4.5608237  0.009053539    89.266436    6312.4962 
  409200    3407.0453   0.33027114    22.024603  0.018963208         0.05    4.9142922 0.0095915555    90.821894    6311.4752 
  409300    3407.9852   0.32955861    22.030591  0.018963208         0.05    5.0157289 0.0092376632    89.176721    6310.4836 
  409400    3408.9031   0.33071875    22.036076  0.018963208         0.05     5.136195 0.0096157498    89.206688    6309.4913 
  409500    3409.8634   0.33128964      22.0427  0.018963208         0.05    5.2281749 0.0095198369    89.149843    6308.4999 
  409600    3410.7985   0.33062088    22.048755  0.018963208         0.05    5.0190128 0.0087253751     89.42505    6307.5035 
  409700    3411.6954   0.33028751    22.055491  0.018963208         0.05    4.7061916 0.0090549547    91.457339    6306.4713 
  409800    3412.6155   0.33017954    22.061164  0.018963208         0.05    4.8437921 0.0089605109    90.087564     6305.463 
  409900    3413.5126   0.33228565    22.066594  0.018963208         0.05    5.2227014 0.0088458739    90.705168    6304.4437 
  410000    3414.4069   0.33091852    22.072374  0.018963208         0.05    5.1905666 0.0090705559    88.970117    6303.4554 
  410100    3415.3003   0.33152948    22.078411  0.018963208         0.05    5.4266596 0.0087675256    89.987541    6302.4487 
  410200    3416.1707   0.33006818    22.084161  0.018963208         0.05    5.2837536 0.0086798164    89.278692    6301.4546 
  410300    3417.0352   0.33094492    22.089963  0.018963208         0.05    5.3435572 0.0085859577    89.633123    6300.4541 
  410400    3417.8888    0.3318194    22.095959  0.018963208         0.05    5.3930151 0.0084809976    89.499068     6299.456 
  410500    3418.7328   0.33151874    22.101745  0.018963208         0.05    5.4165915 0.0082840615    89.508618    6298.4576 
  410600    3419.5423   0.33201711    22.107618  0.018963208         0.05    5.3812532 0.0077608693    89.928541    6297.4517 
  410700    3420.3371   0.33268678    22.112681  0.018963208         0.05    5.4597321 0.0083718966    90.842036    6296.4297 
  410800    3421.1682   0.33224962     22.11781  0.018963208         0.05     5.619907 0.0081875761    88.637699    6295.4469 
  410900    3421.9903   0.33079774    22.123311  0.018963208         0.05    5.6951598 0.0081859434    90.285556    6294.4345 
  411000    3422.7935   0.33176547    22.128737  0.018963208         0.05    5.0330805 0.0082363043    90.170417    6293.4241 
  411100    3423.6133    0.3309349    22.133979  0.018963208         0.05    5.1099899  0.008141551    88.008726    6292.4527 
  411200     3424.429   0.33243965    22.138789  0.018963208         0.05    5.4100572 0.0081189307    89.864303    6291.4476 
  411300    3425.2923   0.33182913    22.143883  0.018963208         0.05    5.6208084 0.0086574517    89.751291    6290.4444 
  411400    3426.1596   0.33066859    22.148578  0.018963208         0.05    5.6603656 0.0086145873    89.600131    6289.4439 
  411500    3427.0154    0.3302136    22.153483  0.018963208         0.05    5.7590581 0.0084719561    88.414195    6288.4647 
  411600    3427.8472   0.33020251    22.158792  0.018963208         0.05    5.8204625 0.0085282511    90.589563    6287.4467 
  411700    3428.6971   0.33085561    22.164378  0.018963208         0.05    5.4611399  0.008611366    90.160338    6286.4361 
  411800     3429.558   0.33165523    22.169821  0.018963208         0.05     5.726905 0.0085304804    89.971751    6285.4287 
  411900    3430.4208   0.33252956    22.175193  0.018963208         0.05    5.5073164 0.0084508336    90.195896    6284.4174 
  412000    3431.2469    0.3306744        22.18  0.018963208         0.05    5.7791994 0.0081333951    89.710383    6283.4146 
  412100    3432.0613   0.33002448    22.185222  0.018963208         0.05    5.8751187 0.0081567814    88.549336    6282.4326 
  412200    3432.8806   0.33157629    22.190241  0.018963208         0.05    5.5115845 0.0084890002    90.321019     6281.419 
  412300    3433.7405   0.33208967    22.195089  0.018963208         0.05    5.0902342 0.0086317211    89.240226    6280.4244 
  412400    3434.6347   0.33010003    22.199893  0.018963208         0.05    5.2036363 0.0090134222    89.134497    6279.4316 
  412500     3435.522   0.32972011    22.204909  0.018963208         0.05    5.3251726 0.0088128557    89.895312    6278.4252 
  412600    3436.4032   0.33219781    22.208527  0.018963208         0.05    4.7879356 0.0088971021     89.17473    6277.4316 
  412700    3437.3108   0.33301464    22.213253  0.018963208         0.05    4.8355172 0.0090299599    90.950437    6276.4068 
  412800    3438.1987   0.33134078    22.218574  0.018963208         0.05    5.3232357 0.0083770183    89.574758     6275.406 
  412900    3439.0433   0.33059677    22.223959  0.018963208         0.05     4.995989  0.008496207     91.78842    6274.3668 
  413000    3439.9041   0.33229452    22.228207  0.018963208         0.05    5.0695252  0.009291611    89.610698    6273.3652 
  413100    3440.8064   0.33127053     22.23318  0.018963208         0.05     6.041226  0.008261617    88.950249    6272.3754 
  413200    3441.6263   0.33220084    22.237095  0.018963208         0.05    5.5441311 0.0087404364     89.89589    6271.3687 
  413300    3442.4959   0.33105884    22.242044  0.018963208         0.05    5.1990753 0.0086297675    89.301654    6270.3724 
  413400     3443.355   0.33175508    22.247308  0.018963208         0.05    5.3230367 0.0085756142    89.234492    6269.3773 
  413500    3444.2087   0.33190066     22.25216  0.018963208         0.05    5.4890119 0.0084865964    89.042911    6268.3855 
  413600    3445.0528   0.33060767    22.257195  0.018963208         0.05    5.4620453 0.0083830689    88.725563    6267.3994 
  413700    3445.8867   0.33099344     22.26202  0.018963208         0.05    5.5469204 0.0082681354     88.51484     6266.417 
  413800    3446.7185   0.33053074     22.26639  0.018963208         0.05    5.7546321 0.0084354788    89.944952    6265.4091 
  413900    3447.5572   0.33116831    22.271112  0.018963208         0.05    6.0483576 0.0080165683    89.972157    6264.4006 
  414000    3448.3802   0.33060493    22.276105  0.018963208         0.05    5.9575232 0.0080956922     90.10113    6263.3899 
  414100    3449.2584   0.33048526    22.281188  0.018963208         0.05     5.156062 0.0085355263    89.057583    6262.3975 
  414200    3450.1274   0.33107426    22.285994  0.018963208         0.05    4.9294571 0.0086614265     90.61755    6261.3777 
  414300    3450.9865    0.3312179    22.291309  0.018963208         0.05    5.1453515  0.008560227    90.596118    6260.3582 
  414400    3451.7932   0.33091119    22.296118  0.018963208         0.05    6.2743956 0.0079440228    91.118997    6259.3298 
  414500    3452.5838   0.33138324    22.301351  0.018963208         0.05    6.3472879 0.0078527358    88.520425    6258.3468 
  414600    3453.3648   0.33140161    22.305979  0.018963208         0.05    6.4249236 0.0077583009    88.937895    6257.3563 
  414700    3454.1365   0.33158227     22.31046  0.018963208         0.05    6.5020921  0.007666778    88.898139    6256.3664 
  414800    3454.8938   0.33177482    22.315248  0.018963208         0.05    6.5753235 0.0075815876    90.649983    6255.3457 
  414900     3455.649   0.32968913    22.319951  0.018963208         0.05    6.6397358 0.0075087287    88.849968    6254.3566 
  415000    3456.3956    0.3310179    22.324974  0.018963208         0.05    6.7058117 0.0074322677    89.202324    6253.3611 
  415100    3457.1298   0.33052193    22.329596  0.018963208         0.05    6.7619594 0.0073643613    89.716274    6252.3565 
  415200    3457.8627    0.3305813    22.334088  0.018963208         0.05    6.8349508 0.0072860709    89.143003     6251.362 
  415300    3458.5767   0.33061079    22.338681  0.018963208         0.05    6.0685167 0.0068574737    89.668554    6250.3581 
  415400    3459.2583    0.3306761    22.342888  0.018963208         0.05    6.1341226 0.0067056957    88.902643    6249.3677 
  415500    3459.9842    0.3300797    22.347751  0.018963208         0.05    5.6430072 0.0081800085     90.21421    6248.3542 
  415600    3460.8106    0.3314528    22.352946  0.018963208         0.05      5.62727  0.008248854    91.444438    6247.3197 
  415700    3461.6455   0.32980548    22.358592  0.018963208         0.05    5.6518181  0.008310058    90.344112     6246.304 
  415800    3462.4757   0.33129642    22.363599  0.018963208         0.05    5.4250761 0.0080200744    90.347557    6245.2881 
  415900    3463.3308   0.33019098    22.369847  0.018963208         0.05    5.0306872 0.0088884927    91.430226    6244.2537 
  416000    3464.2155   0.33121248    22.375243  0.018963208         0.05    4.9556792 0.0087516569    90.760086    6243.2307 
  416100    3465.0955    0.3305422    22.381263  0.018963208         0.05    5.1283684 0.0084190112    90.745672    6242.2078 
  416200    3465.9342   0.33061335    22.386576  0.018963208         0.05    5.2884434 0.0083430709     88.91576    6241.2168 
  416300     3466.764   0.33186081    22.391771  0.018963208         0.05    4.8755166 0.0083130239    88.816647    6240.2274 
  416400    3467.6745    0.3300646     22.39808  0.018963208         0.05    4.9665659  0.009149347    90.300057    6239.2121 
  416500    3468.5683   0.33017141    22.403761  0.018963208         0.05    5.1118848 0.0087798256    90.575282     6238.192 
  416600    3469.4415   0.33055707    22.409285  0.018963208         0.05    5.1705689 0.0086179238    89.348813     6237.193 
  416700    3470.2915   0.33083657    22.414636  0.018963208         0.05     5.520191 0.0084020139    89.783529    6236.1865 
  416800      3471.11   0.32971489    22.420249  0.018963208         0.05    5.3256605 0.0082908654    90.209883    6235.1725 
  416900    3471.9317   0.33072922     22.42543  0.018963208         0.05    5.4491925 0.0081200693    88.403741    6234.1901 
  417000    3472.7656   0.33090373    22.430523  0.018963208         0.05     5.499146  0.008789049    89.757015    6233.1839 
  417100    3473.6539   0.32997082    22.436938  0.018963208         0.05    5.1782651  0.009253773    90.944146    6232.1572 
  417200     3474.564    0.3308426    22.442095  0.018963208         0.05    4.9859899 0.0089837917    89.948597    6231.1475 
  417300    3475.4546   0.33131494    22.447312  0.018963208         0.05    5.2924093 0.0088559859    89.815463    6230.1401 
  417400    3476.3331   0.33106841    22.452524  0.018963208         0.05    5.3087995 0.0085242521     90.63488    6229.1186 
  417500    3477.1677   0.32922342    22.457975  0.018963208         0.05    5.6105692 0.0084809423    90.688478    6228.0961 
  417600    3478.0031   0.32973547    22.463609  0.018963208         0.05    5.1817974 0.0084927128    91.595309    6227.0584 
  417700    3478.8479   0.33108866     22.46936  0.018963208         0.05    4.8364077 0.0084185212    90.827833    6226.0335 
  417800    3479.6869   0.32991099     22.47539  0.018963208         0.05    4.7941787 0.0083432138    89.829582    6225.0256 
  417900    3480.5182   0.32969437    22.481534  0.018963208         0.05    5.0669459 0.0082670293    88.305134    6224.0444 
  418000    3481.3698   0.33073236    22.486839  0.018963208         0.05    4.8629891 0.0089286712    89.694076    6223.0387 
  418100     3482.262   0.33132701    22.492844  0.018963208         0.05    4.7783093 0.0092777458    89.805617    6222.0311 
  418200    3483.1946   0.33004203    22.498446  0.018963208         0.05    4.7146589 0.0093022616    91.507302    6220.9946 
  418300    3484.1326    0.3304131    22.504812  0.018963208         0.05     4.481396 0.0096679749    90.456555    6219.9757 
  418400    3485.0896    0.3310608    22.510649  0.018963208         0.05    5.1614274 0.0095353493    90.294361    6218.9595 
  418500    3486.0435   0.33178064    22.516375  0.018963208         0.05    5.1868403 0.0095411466    90.640795    6217.9375 
  418600     3486.991   0.33005455    22.522339  0.018963208         0.05     5.116366 0.0093749128    90.675714    6216.9148 
  418700    3487.9185    0.3299828    22.527392  0.018963208         0.05    5.0254504 0.0092868852    90.236821    6215.8995 
  418800    3488.8143   0.33105528    22.532494  0.018963208         0.05    5.2057462 0.0088668381    89.937777    6214.8892 
  418900    3489.7346      0.33046    22.538272  0.018963208         0.05    4.9735965 0.0088707441    90.247403    6213.8736 
  419000     3490.629   0.33078342    22.543979  0.018963208         0.05    5.6476309 0.0085173466     90.32878    6212.8566 
  419100    3491.4769   0.33198056    22.549001  0.018963208         0.05    5.4617236 0.0083348485    90.171638    6211.8423 
  419200    3492.3258   0.32991197    22.554856  0.018963208         0.05     5.487419 0.0083925955     90.42311    6210.8236 
  419300    3493.1788   0.33169699    22.559721  0.018963208         0.05    5.5020612  0.008533577    89.808367    6209.8153 
  419400    3493.9986   0.33102573     22.56474  0.018963208         0.05    5.1483724 0.0080712824    90.103317     6208.802 
  419500    3494.8217   0.32997523    22.570285  0.018963208         0.05    5.0187986 0.0083566291    89.044896    6207.8069 
  419600    3495.6521   0.33223032    22.575242  0.018963208         0.05    4.9580756 0.0082514714    88.764863    6206.8166 
  419700    3496.4761   0.33155887    22.580147  0.018963208         0.05    4.9237877  0.008288274    89.771999    6205.8087 
  419800    3497.3313   0.33240635    22.585894  0.018963208         0.05    4.8960313 0.0087016491     90.31744    6204.7916 
  419900    3498.1903   0.33024332    22.591501  0.018963208         0.05    5.1542566 0.0087184569    89.906951    6203.7813 
  420000    3499.0349    0.3302198    22.596979  0.018963208         0.05    5.2295634 0.0084680462    88.878849    6202.7888 
  420100    3499.8897   0.33115608    22.602066  0.018963208         0.05    5.1426218 0.0084172792    88.723986    6201.7989 
  420200    3500.7245   0.33173189    22.606422  0.018963208         0.05     5.458746 0.0085065333    90.921573    6200.7714 
  420300    3501.5751   0.33158517     22.61199  0.018963208         0.05     5.515397 0.0084765975    90.099427    6199.7577 
  420400    3502.4159   0.33101643    22.617129  0.018963208         0.05     5.687465 0.0082195252    88.467698    6198.7721 
  420500    3503.2761   0.33122078    22.622724  0.018963208         0.05    5.5548088  0.008569739    89.623566    6197.7664 
  420600    3504.1501    0.3305615    22.629062  0.018963208         0.05    5.4130148 0.0087828286    90.338644    6196.7485 
  420700    3505.0179   0.33088246    22.635032  0.018963208         0.05    5.4992948 0.0086577843    89.449041    6195.7457 
  420800    3505.8778   0.33215849    22.639778  0.018963208         0.05    5.7419397 0.0084310989    89.303726    6194.7453 
  420900    3506.7259   0.33128506    22.645146  0.018963208         0.05    5.6241997 0.0084637631     90.51879    6193.7242 
  421000    3507.5619   0.33080938    22.650362  0.018963208         0.05    5.8180824 0.0083314428    89.651285    6192.7178 
  421100     3508.345   0.33223517     22.65477  0.018963208         0.05    6.0028749 0.0077203089    88.128405    6191.7378 
  421200    3509.1055   0.33116721      22.6599  0.018963208         0.05    5.7649466 0.0075426015    89.056145    6190.7415 
  421300    3509.8808   0.33164969    22.664192  0.018963208         0.05    5.7067559 0.0078597842    91.900462    6189.6974 
  421400     3510.665   0.33088781    22.669342  0.018963208         0.05    5.7627004 0.0077969216    88.781078    6188.7058 
  421500    3511.4322   0.33057916     22.67356  0.018963208         0.05    5.5545951 0.0081393257    88.695111    6187.7156 
  421600    3512.2232    0.3318429     22.67866  0.018963208         0.05    5.0580463 0.0078949946    91.367587    6186.6801 
  421700    3513.0089   0.33116562    22.683189  0.018963208         0.05    5.1301814  0.007864062    88.671504    6185.6902 
  421800    3513.8039   0.33086079    22.687869  0.018963208         0.05    5.2179695 0.0079165467    89.367584    6184.6882 
  421900    3514.5823   0.32977864    22.692947  0.018963208         0.05    5.6649531  0.008550755    88.503951    6183.7011 
  422000    3515.4511   0.33066729    22.698092  0.018963208         0.05     5.540315 0.0089281606    87.819443     6182.726 
  422100    3516.3393   0.33068879    22.703254  0.018963208         0.05    5.6432975 0.0088446461    90.142066    6181.7107 
  422200    3517.2202   0.33122999    22.707767  0.018963208         0.05    5.2883971 0.0087431338    89.444158    6180.7071 
  422300    3518.1017   0.33069256    22.713491  0.018963208         0.05    5.3718447 0.0088802169    89.334369    6179.7054 
  422400    3518.9764   0.33066349    22.718659  0.018963208         0.05    5.4459706  0.008244437    89.036655    6178.7088 
  422500     3519.843   0.33206615    22.723572  0.018963208         0.05    5.4375419 0.0086065362    89.723433    6177.7003 
  422600    3520.7018   0.33115643    22.728604  0.018963208         0.05    5.3038941 0.0085389472     89.30038     6176.699 
  422700    3521.5455   0.33158045    22.732738  0.018963208         0.05    5.4185956 0.0083664021    90.175554    6175.6828 
  422800    3522.3753   0.33154729    22.737917  0.018963208         0.05    5.5833857 0.0082377612    89.694383    6174.6747 
  422900    3523.1736    0.3324602    22.743123  0.018963208         0.05    6.0383439 0.0082736536    89.835566    6173.6641 
  423000     3524.003   0.33099943    22.748406  0.018963208         0.05      6.04852 0.0082620436    89.608707    6172.6574 
  423100    3524.8414   0.33282238    22.753575  0.018963208         0.05    5.4830979 0.0084210881    89.244517    6171.6567 
  423200    3525.6742   0.33049057    22.759132  0.018963208         0.05     5.531684  0.008176681    89.938568    6170.6443 
  423300    3526.4977   0.33082378     22.76333  0.018963208         0.05    5.6124642 0.0082269201    90.086848    6169.6293 
  423400    3527.3158   0.33042999    22.769031  0.018963208         0.05    5.6942754 0.0081258013    88.667642    6168.6385 
  423500     3528.124   0.33039872    22.773767  0.018963208         0.05    5.7750912 0.0080281266    86.534539    6167.6854 
  423600    3528.9225   0.33069797     22.77845  0.018963208         0.05    5.8559415 0.0079324702    88.678197    6166.6942 
  423700    3529.7109   0.32913005    22.783233  0.018963208         0.05    5.9450543 0.0078322013    88.524087    6165.7057 
  423800    3530.4894   0.32898575    22.788408  0.018963208         0.05     6.120714 0.0077172862    88.747208    6164.7132 
  423900    3531.3482     0.331277    22.794051  0.018963208         0.05    4.8278451 0.0091698529     90.13947     6163.697 
  424000     3532.241   0.32948683     22.80033  0.018963208         0.05    4.8987432 0.0087894708    90.137513    6162.6807 
  424100    3533.1204    0.3310571    22.805881  0.018963208         0.05    5.2134382  0.008618153    89.643314    6161.6728 
  424200    3533.9746   0.33031116    22.811715  0.018963208         0.05    5.3137537 0.0084810833    90.119482    6160.6568 
  424300    3534.8178   0.32952477    22.818191  0.018963208         0.05    5.3980749 0.0083729834    88.656734    6159.6656 
  424400    3535.6502   0.33131968    22.823727  0.018963208         0.05    5.4930337 0.0082557613    88.711075    6158.6733 
  424500    3536.4717   0.33180546    22.828742  0.018963208         0.05    5.5755458 0.0081660368    89.256938    6157.6717 
  424600    3537.2839   0.33035612    22.834306  0.018963208         0.05    5.6617318 0.0080638921    88.917664    6156.6758 
  424700    3538.0867   0.33009446    22.839827  0.018963208         0.05    5.7598795 0.0079921529    89.896449    6155.6633 
  424800     3538.887   0.32929654    22.845348  0.018963208         0.05     5.357728 0.0087040596    88.678347    6154.6714 
  424900    3539.7835   0.33171652     22.85104  0.018963208         0.05    5.2290473 0.0088975057    90.138734    6153.6547 
  425000    3540.6812   0.33128578    22.856932  0.018963208         0.05    5.2497911  0.009140989    89.694307    6152.6454 
  425100    3541.5874    0.3306103    22.862641  0.018963208         0.05    5.3339921 0.0093023845    89.664931    6151.6366 
  425200    3542.4686   0.33024138    22.867493  0.018963208         0.05    5.4215396 0.0088639866    90.487759     6150.614 
  425300    3543.3404   0.33121452    22.872952  0.018963208         0.05    5.5047364 0.0087484728     90.85961    6149.5852 
  425400     3544.215   0.33184471    22.878713  0.018963208         0.05    5.1991637 0.0084622419     89.52864    6148.5785 
  425500    3545.1392   0.33171838    22.884983  0.018963208         0.05    5.2141368 0.0089620503    91.329866    6147.5421 
  425600    3546.0347   0.33200098    22.891004  0.018963208         0.05    5.2987586 0.0085023723    91.748605    6146.4988 
  425700    3546.8873     0.331938    22.896051  0.018963208         0.05    5.3807694 0.0084647897    89.064485    6145.4998 
  425800    3547.7284   0.33012225    22.902803  0.018963208         0.05    5.4504983 0.0083323197    89.181954    6144.4988 
  425900    3548.5639   0.33040849    22.908707  0.018963208         0.05    5.5336943 0.0083468979    89.530647    6143.4919 
  426000    3549.3985   0.33067923    22.914378  0.018963208         0.05     5.612421 0.0088271102     88.72209    6142.4986 
  426100    3550.2709   0.33177192     22.91988  0.018963208         0.05    5.4752173 0.0088927237    89.621478      6141.49 
  426200    3551.1579   0.33195402     22.92593  0.018963208         0.05    5.5241748 0.0088804798    89.005177    6140.4917 
  426300    3552.0398   0.33181178    22.932077  0.018963208         0.05     5.613492 0.0087451966    88.784085    6139.4972 
  426400    3552.9027    0.3310458    22.937606  0.018963208         0.05    5.7038793 0.0082111697    88.940441    6138.4999 
  426500     3553.725   0.33116024    22.942225  0.018963208         0.05    5.7657425 0.0084126359     90.02764    6137.4843 
  426600    3554.5623   0.33077546    22.948038  0.018963208         0.05    5.9528405 0.0083192428    90.201909    6136.4658 
  426700    3555.3893   0.33066118    22.953651  0.018963208         0.05    6.0340488 0.0082097117    89.356636    6135.4614 
  426800    3556.2054   0.33174575    22.959424  0.018963208         0.05    6.1156584 0.0081021349    88.924941    6134.4642 
  426900    3557.0105   0.33184716    22.965445  0.018963208         0.05    6.1949601  0.008003969    88.403331    6133.4758 
  427000    3557.8066   0.33257819    22.970926  0.018963208         0.05    6.2710097 0.0079074562    88.120092    6132.4922 
  427100     3558.593    0.3305695    22.976079  0.018963208         0.05    6.3497592 0.0078108842     88.21875    6131.5069 
  427200    3559.3699   0.33112879    22.981274  0.018963208         0.05    6.4274471 0.0077179626    88.227768    6130.5214 
  427300    3560.1368   0.33227443      22.9864  0.018963208         0.05    6.6386688 0.0074630903    88.712952    6129.5274 
  427400    3560.8873    0.3318156    22.991239  0.018963208         0.05    6.5796862 0.0074989919    89.949813    6128.5127 
  427500    3561.6331   0.33221385    22.996135  0.018963208         0.05    6.6658107 0.0074078464    88.854071    6127.5162 
  427600    3562.3704   0.33116646     23.00036  0.018963208         0.05    6.7367246   0.00733072    89.248733     6126.513 
  427700       3563.1   0.33114848    23.005006  0.018963208         0.05    6.8096849 0.0072540673    88.677709    6125.5195 
  427800     3563.822   0.33167662    23.009136  0.018963208         0.05    6.8777678 0.0071813871    88.894277    6124.5222 
  427900    3564.5368    0.3309458    23.013409  0.018963208         0.05     6.977349 0.0070831068    88.566893    6123.5304 
  428000    3565.2407   0.33106021    23.017995  0.018963208         0.05    7.0394781 0.0070214651    89.351858    6122.5252 
  428100    3565.9397   0.33157321    23.022575  0.018963208         0.05    7.0990669 0.0069276707    87.960185    6121.5437 
  428200    3566.6837   0.33085238    23.027431  0.018963208         0.05    5.7625028  0.008668184    89.016662    6120.5441 
  428300     3567.551   0.33099356    23.033043  0.018963208         0.05    5.3654284 0.0085985486    89.422724    6119.5376 
  428400     3568.434   0.32940243    23.038607  0.018963208         0.05    5.1992282 0.0089151531    90.015564    6118.5213 
  428500    3569.3281    0.3302437    23.044876  0.018963208         0.05    5.2106181 0.0092248615    89.687479    6117.5103 
  428600    3570.2439   0.33229091    23.050141  0.018963208         0.05     5.302197 0.0090773215    88.836607    6116.5135 
  428700    3571.1322   0.33126455    23.055823  0.018963208         0.05    5.4477847 0.0084122612    89.829352       6115.5 
  428800    3571.9543   0.33123442    23.061087  0.018963208         0.05    5.1142517 0.0094373066     89.88254    6114.4857 
  428900    3572.8677   0.33108225     23.06675  0.018963208         0.05    5.0349703 0.0091476235    90.307076    6113.4643 
  429000    3573.7787   0.33168247    23.072477  0.018963208         0.05    5.0515644 0.0091249559    89.627817    6112.4541 
  429100    3574.6845   0.33109932    23.077973  0.018963208         0.05    5.1875611 0.0089898967    88.668523    6111.4598 
  429200     3575.572   0.33051893    23.084168  0.018963208         0.05    5.4978409 0.0086386777    89.670893    6110.4488 
  429300    3576.4366   0.32900116    23.089578  0.018963208         0.05    5.6204515 0.0082584791    89.694633    6109.4373 
  429400    3577.2745   0.33100993    23.095198  0.018963208         0.05    5.8348258 0.0083647928    90.004051    6108.4206 
  429500    3578.1075   0.33195448    23.100753  0.018963208         0.05    5.8302344 0.0081582223    89.413764    6107.4137 
  429600    3578.9337   0.33156256    23.104984  0.018963208         0.05    5.8160337 0.0082970807     89.35736    6106.4076 
  429700    3579.7515   0.33045258     23.11046  0.018963208         0.05    6.0032066 0.0081245164    89.263643    6105.4031 
  429800    3580.5653   0.33110994    23.115823  0.018963208         0.05    5.7065578 0.0084682896    88.682903    6104.4082 
  429900    3581.4066   0.33188044    23.121323  0.018963208         0.05    5.7896989 0.0083302697    89.183471    6103.4049 
  430000     3582.248   0.32957249    23.127006  0.018963208         0.05    5.1466807 0.0087112713    88.438598     6102.414 
  430100    3583.1239   0.33094531    23.132717  0.018963208         0.05    5.3801956 0.0085687342    90.987431    6101.3811 
  430200    3584.0256   0.33164558    23.138378  0.018963208         0.05    5.1677979 0.0090580907    91.369677    6100.3421 
  430300    3584.9345   0.33040619    23.143759  0.018963208         0.05    5.1841114  0.009042594    89.269932    6099.3372 
  430400    3585.8397   0.33103386    23.148961  0.018963208         0.05    5.1850252 0.0091544362    90.954736    6098.3047 
  430500     3586.752   0.33187945    23.154328  0.018963208         0.05    5.1713888  0.009094701    89.405931    6097.2974 
  430600    3587.6388   0.32938622    23.159568  0.018963208         0.05    5.2402952 0.0088054751    89.944566    6096.2812 
  430700    3588.4832   0.33055773    23.164759  0.018963208         0.05    5.2461954 0.0080565344    89.636015      6095.27 
  430800    3589.3424   0.33193564    23.169515  0.018963208         0.05     5.355696 0.0086912611    90.751995    6094.2406 
  430900     3590.219   0.32988145    23.175793  0.018963208         0.05    5.4197728 0.0088892426    89.371011    6093.2337 
  431000     3591.106    0.3303096    23.181335  0.018963208         0.05    5.5098806 0.0088171553    87.801169    6092.2531 
  431100    3591.9524   0.33102235    23.186094  0.018963208         0.05    5.6029408 0.0083450779    89.982599     6091.236 
  431200    3592.7908   0.33123386    23.191773  0.018963208         0.05    5.6691666 0.0084258543    91.316544    6090.1975 
  431300    3593.6306   0.33200868    23.196522  0.018963208         0.05    5.4770381 0.0083982346    90.440346    6089.1729 
  431400    3594.4756   0.33081274    23.201703  0.018963208         0.05    5.6037819 0.0085521987    90.665698    6088.1447 
  431500    3595.3273   0.32957921    23.205738  0.018963208         0.05    5.6200977 0.0083662508    90.934307    6087.1121 
  431600    3596.1605   0.33001412    23.211483  0.018963208         0.05    5.8408638 0.0083351958    90.140206    6086.0923 
  431700     3596.981   0.33056463    23.217267  0.018963208         0.05    5.8768963 0.0083074554    89.386515    6085.0847 
  431800    3597.7975   0.33006813    23.222127  0.018963208         0.05    5.9483381 0.0083138941    89.430941    6084.0764 
  431900    3598.5982   0.33104188    23.226421  0.018963208         0.05    6.1756319 0.0079044587    89.579732    6083.0656 
  432000    3599.3824   0.33147643    23.231163  0.018963208         0.05    6.1149574 0.0079497476    91.168432    6082.0291 
  432100    3600.1691   0.33211431    23.235379  0.018963208         0.05    6.2761852 0.0077664471    89.422724    6081.0207 
  432200    3600.9474   0.32935863    23.240731  0.018963208         0.05    6.2905484 0.0077451972    90.638817    6079.9926 
  432300     3601.717   0.33199383    23.245448  0.018963208         0.05    6.4297639 0.0075600524    87.544823    6079.0157 
  432400    3602.4187   0.32965559    23.249593  0.018963208         0.05    7.1384707 0.0069240751    90.772676    6077.9854 
  432500    3603.1086   0.33086402    23.254013  0.018963208         0.05    7.2003617 0.0068584568    89.185462    6076.9807 
  432600    3603.7938    0.3300054    23.259007  0.018963208         0.05    7.2323435 0.0068204919    89.039754    6075.9784 
  432700     3604.473   0.33052576    23.263164  0.018963208         0.05    7.2988804 0.0067571765    89.505962    6074.9684 
  432800    3605.1564   0.32994326    23.267792  0.018963208         0.05    7.4475973 0.0066944457    89.394574    6073.9602 
  432900    3605.8275   0.33040157    23.271515  0.018963208         0.05     7.325716 0.0067782178    90.635213    6072.9318 
  433000    3606.5112   0.33085343    23.275197  0.018963208         0.05    6.1044028 0.0076049915    88.597575    6071.9367 
  433100    3607.3065   0.32983974    23.279619  0.018963208         0.05     5.122488 0.0090168484    89.058377    6070.9338 
  433200    3608.1972   0.33023143    23.285151  0.018963208         0.05    5.1444131 0.0088437895    88.880281    6069.9338 
  433300    3609.0552   0.33174405     23.29028  0.018963208         0.05    5.2596256 0.0085953243    91.115849    6068.8977 
  433400    3609.8899   0.33111762    23.295195  0.018963208         0.05    6.3243054 0.0076619963    88.825883    6067.8985 
  433500    3610.6522   0.33175062    23.299983  0.018963208         0.05    6.4001407 0.0075765335    88.804029    6066.8997 
  433600    3611.4027   0.33201533    23.304333  0.018963208         0.05    6.5478341 0.0074411328    88.523377    6065.9054 
  433700    3612.1337   0.33018524    23.309261  0.018963208         0.05    6.7460686 0.0073541396    90.299085    6064.8821 
  433800    3612.9044   0.33043957    23.313852  0.018963208         0.05    6.3765516 0.0078267349    91.389307    6063.8415 
  433900    3613.6821   0.33049292    23.318433  0.018963208         0.05    6.4819837  0.007703551    88.661195    6062.8447 
  434000    3614.4582   0.33100742    23.322898  0.018963208         0.05    6.4520206 0.0077377203    89.066944    6061.8413 
  434100    3615.2283   0.33115961    23.327768  0.018963208         0.05    6.5254653 0.0076511903    88.838206    6060.8415 
  434200    3615.9896   0.33158842    23.332607  0.018963208         0.05    6.6002117  0.007564844    89.555575    6059.8299 
  434300    3616.7422   0.33147375    23.337444  0.018963208         0.05    6.6786089  0.007476071    88.903905     6058.829 
  434400    3617.4839   0.33116784    23.342014  0.018963208         0.05    6.7772988 0.0073634648    89.072656    6057.8252 
  434500    3618.2169   0.33156251    23.346559  0.018963208         0.05    6.8542366 0.0072813067    88.173703    6056.8363 
  434600     3618.941   0.33070126    23.350603  0.018963208         0.05    6.9339242 0.0071994395    88.503951    6055.8417 
  434700    3619.6573   0.33108107    23.354867  0.018963208         0.05    7.0095417 0.0071204429    88.841348    6054.8416 
  434800     3620.377   0.33244897    23.358643  0.018963208         0.05    6.8057559 0.0073460111    89.782895     6053.826 
  434900    3621.1071   0.32955031    23.363798  0.018963208         0.05    6.8890194  0.007257515    88.834556    6052.8259 
  435000     3621.828   0.32985138    23.368472  0.018963208         0.05    6.9013024 0.0072429444    89.585185    6051.8134 
  435100    3622.5438   0.32998185    23.372806  0.018963208         0.05    7.0836508 0.0070529813    89.478485    6050.8026 
  435200    3623.3558   0.33020773    23.378197  0.018963208         0.05     5.668826 0.0087662603    90.496506    6049.7755 
  435300    3624.2353   0.33127137    23.384612  0.018963208         0.05    5.7567284 0.0085167052    89.861473    6048.7584 
  435400    3625.1124   0.33058577    23.389309  0.018963208         0.05    5.2461274 0.0087955771    89.467606    6047.7477 
  435500    3626.0024   0.32974698    23.394509  0.018963208         0.05    4.9524725 0.0092249681    88.931181    6046.7456 
  435600    3626.9148   0.33066639     23.39952  0.018963208         0.05     5.043989 0.0090840919    89.625174    6045.7322 
  435700    3627.8144   0.33043382    23.404937  0.018963208         0.05    5.1313687 0.0089163862    89.985997     6044.713 
  435800     3628.701   0.33022915    23.410785  0.018963208         0.05    5.1424591 0.0088330768    90.413618    6043.6869 
  435900    3629.5729   0.33174568     23.41674  0.018963208         0.05    4.6369539 0.0090602044     89.48154    6042.6757 
  436000    3630.4721   0.33246828    23.422726  0.018963208         0.05    4.9308505 0.0088917472    88.635357    6041.6782 
  436100    3631.3768   0.33141481    23.428802  0.018963208         0.05    4.8126947 0.0092776786    88.947231    6040.6756 
  436200    3632.3051   0.33212929     23.43463  0.018963208         0.05    4.8292842 0.0094474206     90.08499    6039.6545 
  436300    3633.2618   0.33127596     23.44099  0.018963208         0.05    5.2917977 0.0093078383    90.346389    6038.6293 
  436400    3634.1607   0.33147966    23.447272  0.018963208         0.05     5.001133 0.0090604139    90.678851    6037.5988 
  436500     3635.061   0.33160594    23.452404  0.018963208         0.05    5.0960169 0.0088270624    88.959588    6036.5958 
  436600      3635.96   0.33070635    23.458132  0.018963208         0.05    5.1799052 0.0092456555    90.735209    6035.5643 
  436700    3636.8833   0.33102646    23.463679  0.018963208         0.05    5.2924415 0.0091196165    89.808117    6034.5475 
  436800    3637.7624   0.32852089    23.468896  0.018963208         0.05    5.2979939 0.0088872911    90.333741    6033.5222 
  436900    3638.6685   0.33032781    23.474458  0.018963208         0.05    4.7573722 0.0094389044    89.737369    6032.5065 
  437000    3639.5829   0.33071777    23.480493  0.018963208         0.05    4.8419697 0.0092572046    90.217528     6031.483 
  437100    3640.5055   0.33157534    23.486576  0.018963208         0.05    4.9004833 0.0092275032    88.390383     6030.489 
  437200     3641.414   0.33133855    23.492578  0.018963208         0.05    5.2403099 0.0087363875    89.519258    6029.4766 
  437300    3642.2977    0.3314374    23.497608  0.018963208         0.05    4.5723699 0.0091018483    89.918997    6028.4577 
  437400    3643.2034   0.33177744    23.504235  0.018963208         0.05    4.6677453 0.0087414236    88.580155    6027.4604 
  437500    3644.1487   0.33072653    23.511215  0.018963208         0.05    5.1606647 0.0092457802    90.095691    6026.4386 
  437600    3645.1031   0.33089876    23.517473  0.018963208         0.05    5.1334159 0.0095191338    90.175477    6025.4156 
  437700    3646.0381    0.3312753    23.523378  0.018963208         0.05    5.3096675  0.009221118    89.332371    6024.4059 
  437800    3646.8958   0.33050862    23.529265  0.018963208         0.05    5.4005473 0.0080673984    89.395393    6023.3952 
  437900    3647.7162   0.33083032    23.534379  0.018963208         0.05    5.4825916 0.0080416863    90.158477    6022.3723 
  438000    3648.5886   0.32968438    23.539569  0.018963208         0.05    5.5639056 0.0088051599    88.869678    6021.3699 
  438100    3649.4611   0.33023113    23.544472  0.018963208         0.05    5.1470633 0.0092337231    88.778259     6020.369 
  438200    3650.3851   0.33041107    23.550365  0.018963208         0.05    5.1445204 0.0092431488    91.949116    6019.3183 
  438300    3651.2968   0.33054745    23.555595  0.018963208         0.05    5.2356879 0.0090108196     90.94176     6018.283 
  438400     3652.187   0.32981262    23.561139  0.018963208         0.05     5.325983 0.0087723154    88.841254    6017.2809 
  438500    3653.0583   0.33167587    23.566635  0.018963208         0.05    5.4291489 0.0085259546    88.696218    6016.2811 
  438600    3653.8849   0.33096992    23.571639  0.018963208         0.05    5.3962609 0.0082154423    89.599136    6015.2668 
  438700    3654.7021   0.33150877    23.576662  0.018963208         0.05    5.6737788 0.0081200405    89.156912    6014.2595 
  438800    3655.5034    0.3313983      23.5817  0.018963208         0.05    5.7463097  0.007899226    88.769823    6013.2583 
  438900    3656.2944   0.32965793    23.586963  0.018963208         0.05    5.6507354 0.0079580017    89.565844    6012.2444 
  439000    3657.0839   0.32983918    23.591567  0.018963208         0.05    5.6553246 0.0082785308     87.82415    6011.2586 
  439100    3657.9132   0.33087645    23.596625  0.018963208         0.05    5.7373608 0.0086025601    91.268278     6010.218 
  439200    3658.7657   0.33015566    23.601227  0.018963208         0.05    5.8253238 0.0084600155    89.149123    6009.2105 
  439300    3659.6016   0.33046942    23.606656  0.018963208         0.05    5.6487571 0.0082636962    89.698814    6008.1942 
  439400    3660.4288   0.33077238    23.611766  0.018963208         0.05    5.0982673 0.0090103985    90.122813    6007.1712 
  439500    3661.3211    0.3306568    23.617682  0.018963208         0.05    5.6703785  0.008744353    90.911897    6006.1359 
  439600    3662.1898   0.33051701    23.623252  0.018963208         0.05       5.7561  0.008616145    89.131164    6005.1285 
  439700    3663.0427   0.32976839    23.628926  0.018963208         0.05    5.1529274 0.0082728968    89.317057    6004.1182 
  439800    3663.8678   0.33142586    23.633648  0.018963208         0.05    4.9475408 0.0082035326    89.796677    6003.1001 
  439900    3664.6838   0.33102798    23.638995  0.018963208         0.05    5.0481306 0.0080248121     89.05798    6002.0938 
  440000    3665.5743   0.33154719    23.644965  0.018963208         0.05    4.9780047 0.0091421654    89.707908    6001.0771 
  440100    3666.4595   0.33110505    23.650955  0.018963208         0.05    4.5923688 0.0087100831    88.929673    6000.0727 
  440200    3667.3502   0.33195881    23.656173  0.018963208         0.05    4.6541734 0.0093164949    90.471364    5999.0439 
  440300    3668.2852   0.33212378    23.661799  0.018963208         0.05    4.7582103  0.009544572    91.572832    5997.9982 
  440400    3669.2182   0.33133651    23.666828  0.018963208         0.05    4.7389272 0.0096731016    90.759339    5996.9649 
  440500    3670.1721   0.33074135    23.671834  0.018963208         0.05    4.9050146 0.0096654468    90.978076    5995.9282 
  440600     3671.117   0.33023466    23.677683  0.018963208         0.05     5.056628 0.0095162402    90.319308    5994.9016 
  440700    3671.9784   0.33052195    23.682945  0.018963208         0.05    5.1131328 0.0082131252    89.420474    5993.8891 
  440800    3672.7948   0.33034993    23.688333  0.018963208         0.05    5.2246096 0.0081144795    88.804499    5992.8865 
  440900    3673.6724   0.33149257    23.694178  0.018963208         0.05    5.3013627 0.0091472294    90.418627    5991.8582 
  441000    3674.5922   0.33123968    23.700152  0.018963208         0.05    5.7260348 0.0084656184    89.792563    5990.8397 
  441100    3675.4558   0.33034153    23.705885  0.018963208         0.05    5.6433575 0.0086112301    89.932088     5989.819 
  441200    3676.3099    0.3308041    23.711455  0.018963208         0.05    5.7723073 0.0084717312    88.825732    5988.8158 
  441300    3677.1589   0.33021441    23.717227  0.018963208         0.05    5.8137031 0.0084300129    90.106317    5987.7923 
  441400    3677.9971   0.33015702    23.722904  0.018963208         0.05    5.8790218 0.0083215064    89.594906    5986.7767 
  441500    3678.8229   0.32855976    23.728289  0.018963208         0.05    6.1970758  0.007768327    88.948344    5985.7714 
  441600    3679.5802   0.33020458    23.733276  0.018963208         0.05    5.5001883 0.0079939263    90.797318    5984.7371 
  441700    3680.3815    0.3305614    23.739229  0.018963208         0.05    5.3146386 0.0086021186    91.732693    5983.6885 
  441800    3681.2344   0.33096424    23.744635  0.018963208         0.05    5.5047854 0.0085547171    90.102756    5982.6648 
  441900    3682.0907   0.32995057    23.750008  0.018963208         0.05     5.590179 0.0085243878    90.556978    5981.6341 
  442000    3682.9349   0.33033356    23.755081  0.018963208         0.05    5.6705534 0.0082864745    89.123777    5980.6258 
  442100    3683.7647   0.32990718    23.760851  0.018963208         0.05    5.6636942 0.0084162155    89.404025    5979.6129 
  442200    3684.6021   0.33167401    23.765952  0.018963208         0.05    5.4252594 0.0082984441    91.134281    5978.5733 
  442300    3685.4273   0.33133159    23.771065  0.018963208         0.05    5.8170285  0.008155485     89.40776    5977.5603 
  442400    3686.2299   0.33214546    23.775954  0.018963208         0.05    5.7797536 0.0083837364    89.568981    5976.5447 
  442500    3687.0665   0.32986811    23.780677  0.018963208         0.05    5.8634173 0.0082965832    89.637701     5975.528 
  442600    3687.9037    0.3313537    23.785147  0.018963208         0.05    5.9471413 0.0083628626    90.717272    5974.4946 
  442700    3688.7287   0.33042752    23.790077  0.018963208         0.05    6.2037985 0.0080431399    89.362862    5973.4821 
  442800    3689.5443   0.32966806    23.793964  0.018963208         0.05     6.118271 0.0081355046    90.031215    5972.4592 
  442900    3690.2842   0.32958128    23.798045  0.018963208         0.05    6.1628087 0.0071241052    88.796848    5971.4556 
  443000    3690.9894   0.33017512    23.801856  0.018963208         0.05    6.3193235 0.0069668325    89.258134    5970.4446 
  443100    3691.6686   0.33055051    23.806362  0.018963208         0.05    6.4532238 0.0067521402    89.728596    5969.4263 
  443200     3692.503   0.33139684    23.811428  0.018963208         0.05    5.1692796 0.0089532759    90.117604    5968.4018 
  443300    3693.3381   0.33048867    23.816582  0.018963208         0.05    6.3230815  0.007546673    90.933657    5967.3648 
  443400    3694.0864    0.3310323     23.82123  0.018963208         0.05     6.407095   0.00746166    90.278774    5966.3378 
  443500    3694.8298   0.33206459    23.825539  0.018963208         0.05    6.4666151 0.0073918124    89.785951    5965.3183 
  443600    3695.5618    0.3327403    23.830697  0.018963208         0.05    6.5391775 0.0072903015    89.663743    5964.3008 
  443700    3696.2874   0.33079519    23.835077  0.018963208         0.05    6.6068701 0.0072215555    89.275271    5963.2892 
  443800    3697.0064   0.33167714    23.838964  0.018963208         0.05    6.6785519 0.0071508628    89.131334    5962.2799 
  443900    3697.7192   0.33064334    23.843259  0.018963208         0.05     6.558379 0.0072016225    89.865342    5961.2591 
  444000    3698.4373    0.3300565    23.847047  0.018963208         0.05    6.6258458 0.0071062528    88.789836    5960.2551 
  444100    3699.1496   0.33081059    23.852109  0.018963208         0.05    6.4007791 0.0071167594    89.896699    5959.2336 
  444200    3699.9007   0.33136501    23.856495  0.018963208         0.05    5.9610299 0.0081342155    87.153554     5958.256 
  444300     3700.709   0.33056208    23.861828  0.018963208         0.05    6.0844055 0.0079431538    86.660678    5957.2864 
  444400    3701.5013   0.33046678    23.867299  0.018963208         0.05    5.8995138 0.0078938264    88.552626     5956.286 
  444500    3702.2802   0.33189042    23.871821  0.018963208         0.05    5.8199587 0.0078208152    87.054697    5955.3097 
  444600    3703.0584   0.33118486    23.876906  0.018963208         0.05    5.8758495 0.0084758587    86.938905    5954.3353 
  444700    3703.8843   0.33158746    23.881714  0.018963208         0.05    5.9592521  0.008217999    86.811362    5953.3629 
  444800    3704.7036    0.3313951    23.886995  0.018963208         0.05    6.0291189 0.0081626912    88.551448    5952.3622 
  444900    3705.5096   0.33221292    23.892251  0.018963208         0.05    6.1142558  0.007962121    90.181739     5951.336 
  445000    3706.3104   0.33215771    23.897804  0.018963208         0.05    5.8934071 0.0078274423     88.01639    5950.3437 
  445100    3707.1179   0.33230608    23.902385  0.018963208         0.05    6.0789181 0.0080840061       89.935    5949.3212 
  445200    3707.9265   0.33104519     23.90772  0.018963208         0.05    5.8529262 0.0080673623    89.372306    5948.3073 
  445300    3708.7161   0.33144533    23.912735  0.018963208         0.05    5.9713155 0.0078596015    90.082456    5947.2824 
  445400    3709.4988   0.33191332    23.917952  0.018963208         0.05    5.9115016 0.0078001152    90.144584    5946.2565 
  445500    3710.2748   0.33183007    23.922997  0.018963208         0.05    5.9882167 0.0076986492    89.521437    5945.2402 
  445600    3711.0266   0.33203187    23.927609  0.018963208         0.05     6.483968 0.0074504165    89.883021    5944.2183 
  445700     3711.768   0.33234452    23.932853  0.018963208         0.05    6.5583475 0.0073714089    88.968211    5943.2105 
  445800    3712.5007   0.33128572    23.937926  0.018963208         0.05    6.6457473  0.007275728    88.702821    5942.2069 
  445900    3713.2237   0.33144148    23.942259  0.018963208         0.05    6.6582507 0.0071609301    89.808771    5941.1859 
  446000    3713.9548   0.33177234    23.946298  0.018963208         0.05    6.3503339 0.0076152417    89.890939    5940.1637 
  446100     3714.713   0.33125233    23.951497  0.018963208         0.05    6.2080413 0.0075420869    88.096567    5939.1696 
  446200    3715.4603   0.33097829    23.956218  0.018963208         0.05    5.5787339 0.0073731443     89.90591     5938.147 
  446300    3716.1966   0.33105118    23.961131  0.018963208         0.05    5.6878928 0.0072770229    89.853233    5937.1252 
  446400    3717.0336   0.32929433    23.966537  0.018963208         0.05    5.7971863 0.0082711299    90.866558     5936.088 
  446500    3717.8566   0.33105149    23.972126  0.018963208         0.05    5.7805415 0.0081075735    91.024277    5935.0483 
  446600    3718.6824   0.33217759    23.977706  0.018963208         0.05    5.7857832 0.0084229597    91.813777     5933.997 
  446700    3719.5197   0.33088741    23.983419  0.018963208         0.05    5.8659583 0.0083639746    90.865731    5932.9597 
  446800    3720.3478   0.33008532    23.988506  0.018963208         0.05     5.940723 0.0080648897     90.16026     5931.933 
  446900    3721.1418   0.32899535    23.994161  0.018963208         0.05    6.0861245 0.0076054825    88.780383    5930.9277 
  447000    3721.9562   0.33118702    23.999636  0.018963208         0.05    5.0563894 0.0085032763    91.355746     5929.883 
  447100    3722.7968   0.33160162    24.005403  0.018963208         0.05    5.4079958 0.0079942002    91.021215    5928.8432 
  447200    3723.5835   0.33273882    24.010475  0.018963208         0.05    5.6268131 0.0077034438    92.162331    5927.7866 
  447300    3724.3586   0.33103811    24.015167  0.018963208         0.05    5.5998976 0.0076607876    90.996274    5926.7472 
  447400    3725.1873   0.33149607    24.020107  0.018963208         0.05    5.6982043 0.0084752391    90.154175    5925.7204 
  447500    3726.0181   0.33203053    24.024687  0.018963208         0.05     4.877566 0.0082681431    90.542629    5924.6878 
  447600    3726.8581   0.33142486    24.030025  0.018963208         0.05    4.9114316 0.0084172622    90.202414    5923.6602 
  447700    3727.7001    0.3304632    24.035626  0.018963208         0.05    5.0237323  0.008481103    91.972202    5922.6063 
  447800    3728.5502   0.32915985    24.040345  0.018963208         0.05    4.9283403 0.0085105505    91.760869    5921.5554 
  447900    3729.4269   0.32984542    24.046099  0.018963208         0.05    4.9138118 0.0092326308    90.461569    5920.5238 
  448000    3730.3504   0.33091166    24.051619  0.018963208         0.05    5.0017532   0.00867692    90.479053     5919.492 
  448100    3731.2148   0.33123917    24.056666  0.018963208         0.05    5.1641403 0.0086040752    88.547616    5918.4898 
  448200    3732.0719    0.3303605    24.062339  0.018963208         0.05    5.2178621 0.0085285264    88.751941    5917.4843 
  448300    3732.9193   0.33177505    24.067791  0.018963208         0.05    5.8399061 0.0084097059    89.705644     5916.464 
  448400    3733.7561    0.3299239    24.072978  0.018963208         0.05    5.5952893 0.0086083616    90.004457    5915.4392 
  448500    3734.5771   0.32956662    24.078481  0.018963208         0.05    5.6725889  0.008007971    91.595889    5914.3905 
  448600    3735.3777    0.3304256    24.083183  0.018963208         0.05    5.2877805 0.0080104182     91.99869     5913.336 
  448700    3736.1785   0.33061907    24.087949  0.018963208         0.05    5.3967581 0.0079433982    90.295819    5912.3066 
  448800    3736.9117   0.32950538    24.092854  0.018963208         0.05    5.6172602 0.0069828353    91.148659    5911.2645 
  448900    3737.7005   0.33085807    24.097968  0.018963208         0.05    5.4249613 0.0081932876    91.982348    5910.2102 
  449000    3738.5176   0.33051948    24.103319  0.018963208         0.05    5.2936467 0.0079189137    89.828774    5909.1878 
  449100    3739.3256   0.33048557    24.108267  0.018963208         0.05    5.6043272 0.0081474462    88.993393    5908.1782 
  449200    3740.1406   0.33103687    24.113407  0.018963208         0.05    5.4533397 0.0081357584    90.417223    5907.1468 
  449300    3740.9503   0.33094131    24.118374  0.018963208         0.05    5.6095922 0.0080520294    88.291415    5906.1481 
  449400    3741.7486   0.33063064    24.123665  0.018963208         0.05     5.626931 0.0079058346    88.913215    5905.1396 
  449500    3742.5522   0.33097786    24.129575  0.018963208         0.05    5.7066139 0.0081395885    89.278711    5904.1254 
  449600    3743.3953   0.33026022    24.135783  0.018963208         0.05    5.7483394 0.0085558456    91.262281    5903.0813 
  449700    3744.2452   0.33049785    24.141442  0.018963208         0.05    5.8325781  0.008454588    89.591193    5902.0623 
  449800     3745.084   0.33101558    24.146992  0.018963208         0.05     5.983936 0.0082685777    91.819867      5901.01 
  449900    3745.9066   0.32978002    24.153025  0.018963208         0.05    6.0745788 0.0081714243    88.834951    5900.0025 
  450000    3746.7192   0.32999119     24.15848  0.018963208         0.05    6.1540942 0.0080675726    88.502083    5899.0001 
  450100    3747.5177   0.33041906    24.162792  0.018963208         0.05    6.2458651 0.0079549189    88.913234    5897.9913 
  450200    3748.3087   0.32942773    24.168075  0.018963208         0.05     6.326064 0.0078551037    88.323766    5896.9915 
  450300    3749.0903   0.33035861    24.172782  0.018963208         0.05    6.4005119 0.0077645244    88.943515    5895.9821 
  450400    3749.8623   0.32965303    24.178013  0.018963208         0.05    6.4837705  0.007668882     88.27458    5894.9831 
  450500     3750.621   0.33013935     24.18215  0.018963208         0.05    6.5633213   0.00757293    90.547555    5893.9492 
  450600    3751.3745   0.32983512    24.186485  0.018963208         0.05    6.6399243 0.0074788651    89.142302    5892.9366 
  450700    3752.1145   0.33111271    24.190818  0.018963208         0.05    4.9897038 0.0073914587    88.925318    5891.9273 
  450800    3752.8512   0.32989345    24.195307  0.018963208         0.05    4.9521484 0.0072931284    89.647108    5890.9069 
  450900    3753.5794   0.32948367    24.199253  0.018963208         0.05    5.0874317 0.0068804907    89.400099    5889.8902 
  451000    3754.2793   0.32943077    24.203611  0.018963208         0.05    5.0652671 0.0069911168    89.844437    5888.8667 
  451100    3754.9768   0.32996539    24.208718  0.018963208         0.05    5.1533507 0.0069504174     88.47632    5887.8641 
  451200    3755.6763   0.33019136    24.212752  0.018963208         0.05    5.1648912  0.007164679    89.822157    5886.8409 
  451300    3756.3984   0.33079588    24.218261  0.018963208         0.05    5.4512043 0.0072276513     91.28401     5885.796 
  451400    3757.1602   0.33080778    24.223054  0.018963208         0.05    5.3020033 0.0079536367    90.085958    5884.7687 
  451500    3757.9579   0.33044406    24.227721  0.018963208         0.05    5.4701996 0.0082162391    91.048146    5883.7272 
  451600    3758.7715   0.33120508    24.232896  0.018963208         0.05    5.3731593 0.0081368464    89.783125    5882.7044 
  451700    3759.6031   0.33009384    24.238213  0.018963208         0.05    5.4529755  0.008629566    90.513789    5881.6706 
  451800    3760.4603   0.33160669    24.242995  0.018963208         0.05    5.3787759 0.0085481061    90.201832    5880.6415 
  451900    3761.3103   0.33010732    24.248015  0.018963208         0.05    5.7194347 0.0084716986    89.707256    5879.6198 
  452000    3762.1636   0.33024823    24.253162  0.018963208         0.05    5.3957525  0.008447708    88.727439    5878.6129 
  452100    3762.9663   0.33129578     24.25824  0.018963208         0.05    5.6629062 0.0081379168    89.785797    5877.5899 
  452200    3763.8137    0.3308687    24.263492  0.018963208         0.05    5.3691005 0.0089439213    90.990905    5876.5489 
  452300    3764.7148   0.33116504    24.268904  0.018963208         0.05     5.452955 0.0090391559    90.233404    5875.5191 
  452400    3765.6021   0.33016782    24.274523  0.018963208         0.05    5.5147014 0.0089326974    89.760069    5874.4964 
  452500    3766.4763   0.33135011    24.280434  0.018963208         0.05     5.597682 0.0088009723    90.483836    5873.4628 
  452600    3767.3308   0.33089072    24.285779  0.018963208         0.05    5.6955494 0.0086594953    89.421027    5872.4451 
  452700    3768.1904   0.33168876    24.291121  0.018963208         0.05     5.800275 0.0085095873    89.047921     5871.433 
  452800    3768.9634   0.33114848    24.296064  0.018963208         0.05    6.6506501 0.0073438748    89.868173    5870.4085 
  452900    3769.6948   0.33252499    24.300888  0.018963208         0.05    6.7198473 0.0072780388    88.727515    5869.4012 
  453000    3770.4193    0.3311283    24.305968  0.018963208         0.05    6.7935277  0.007202516    88.571607    5868.3962 
  453100    3771.1352   0.33123065    24.310557  0.018963208         0.05    6.8919931 0.0071240843    88.503017    5867.3923 
  453200    3771.8457   0.33180442    24.315228  0.018963208         0.05    6.9502442  0.007070713    88.676378    5866.3856 
  453300    3772.5423    0.3311725    24.319301  0.018963208         0.05    7.0338678 0.0068921902    89.510852    5865.3662 
  453400    3773.2259   0.33127437    24.323686  0.018963208         0.05    6.9280542 0.0068988091    91.203521    5864.3218 
  453500    3773.9126   0.33022719    24.328636  0.018963208         0.05    6.9873057 0.0068346204    89.143155    5863.3079 
  453600    3774.5935   0.33071988    24.332649  0.018963208         0.05    7.1369551 0.0067288457    90.938783    5862.2672 
  453700    3775.3628   0.33090546    24.337793  0.018963208         0.05    4.7274528 0.0078605402    91.519262    5861.2181 
  453800    3776.1428    0.3307623     24.34347  0.018963208         0.05    4.7106436 0.0078181112    91.003737    5860.1765 
  453900    3776.9235   0.32998316    24.349467  0.018963208         0.05    5.6007859 0.0079478902    89.939956    5859.1505 
  454000     3777.717   0.33170418    24.355109  0.018963208         0.05     5.080557  0.007899089    88.097345    5858.1524 
  454100    3778.5039   0.33169181    24.360413  0.018963208         0.05    5.2996478 0.0078327978    85.708955    5857.1922 
  454200    3779.3018   0.33138464    24.366115  0.018963208         0.05     5.514688 0.0082540968    89.053782    5856.1793 
  454300    3780.1617    0.3321464    24.371684  0.018963208         0.05    5.3811876 0.0086176585    90.854591    5855.1397 
  454400    3781.0384   0.33197099    24.377899  0.018963208         0.05    6.1653363  0.008055875    91.129113     5854.096 
  454500    3781.8399   0.33104131    24.383357  0.018963208         0.05    6.2300179 0.0079722726    90.134918    5853.0668 
  454600    3782.6325   0.33243376    24.388608  0.018963208         0.05    6.3169629  0.007866602    89.372935    5852.0489 
  454700     3783.413   0.33153482    24.394177  0.018963208         0.05    6.3632608 0.0078524878    91.125965    5851.0052 
  454800    3784.1917   0.33167688    24.399753  0.018963208         0.05    6.4091397 0.0077661527    90.053347    5849.9771 
  454900    3784.9734   0.33304293    24.404826  0.018963208         0.05    6.2630033  0.007864345    89.652569     5848.955 
  455000    3785.7554     0.332114    24.409032  0.018963208         0.05    6.3460104 0.0077660424    88.494091    5847.9503 
  455100     3786.528   0.33151521     24.41442  0.018963208         0.05    6.4216079 0.0076769094     87.80786    5846.9561 
  455200    3787.2916   0.33213839    24.420033  0.018963208         0.05    6.4983228 0.0075864127    89.230429    5845.9401 
  455300    3788.0446   0.33130318    24.425333  0.018963208         0.05    6.6084455 0.0074693627    88.931728    5844.9285 
  455400    3788.7705   0.33113497    24.430027  0.018963208         0.05    6.9844801  0.007095135    91.576031    5843.8781 
  455500     3789.472   0.33079317    24.434693  0.018963208         0.05    6.9473651 0.0070331436    90.572153    5842.8422 
  455600    3790.1819   0.33055927    24.439432  0.018963208         0.05    5.6966029 0.0069757692    90.930088     5841.801 
  455700    3790.8782   0.33041846    24.444286  0.018963208         0.05    5.3878587 0.0069136878    89.283956     5840.784 
  455800    3791.5763    0.3308155    24.448696  0.018963208         0.05     5.454071  0.006995236    90.207283    5839.7533 
  455900    3792.2723   0.33201187    24.452837  0.018963208         0.05    5.5495233 0.0069129335    89.036976    5838.7399 
  456000    3792.9622   0.33068817    24.457226  0.018963208         0.05    5.5092679 0.0068853392    89.845226    5837.7144 
  456100     3793.724   0.33186108     24.46247  0.018963208         0.05    5.5851008 0.0083530423    89.219516    5836.6982 
  456200    3794.5788    0.3307756     24.46796  0.018963208         0.05    4.9939775 0.0089803451    91.256205    5835.6521 
  456300    3795.4777   0.33149031    24.473714  0.018963208         0.05    5.2764937  0.008815975    92.408368    5834.5898 
  456400     3796.374   0.33152037    24.479392  0.018963208         0.05    5.2240481 0.0090166273    91.528409    5833.5398 
  456500    3797.2685    0.3326572    24.484964  0.018963208         0.05    5.2604658 0.0088034134    89.049736     5832.526 
  456600    3798.1098   0.33015642    24.490834  0.018963208         0.05    5.9569228 0.0083754426    91.701065    5831.4735 
  456700    3798.9408   0.33058939     24.49608  0.018963208         0.05    6.1536358 0.0080157308    89.496337     5830.453 
  456800    3799.8605   0.33161673    24.501713  0.018963208         0.05    4.6996517 0.0092649465    89.803368    5829.4278 
  456900     3800.768    0.3297171    24.508196  0.018963208         0.05    5.0106373 0.0089596343    90.590208    5828.3912 
  457000    3801.6469   0.33105265    24.513533  0.018963208         0.05     5.242632 0.0085091654    89.300228    5827.3734 
  457100    3802.5093   0.33006831    24.518801  0.018963208         0.05    5.2636302 0.0085198534    90.989168     5826.331 
  457200    3803.3758   0.33184014    24.523134  0.018963208         0.05    5.2398678 0.0089189761    91.490974    5825.2813 
  457300    3804.2571   0.32965122    24.528306  0.018963208         0.05    5.4010314 0.0086208462    90.108272    5824.2515 
  457400    3805.1065   0.33135213     24.53374  0.018963208         0.05    5.5000475 0.0089175203    91.553882    5823.2009 
  457500    3805.9754   0.33199685    24.540074  0.018963208         0.05    5.5873463 0.0086747215    90.694145    5822.1626 
  457600    3806.8425   0.33157602    24.545804  0.018963208         0.05       5.6143 0.0086198251     91.63325    5821.1108 
  457700    3807.6931   0.33080577    24.551508  0.018963208         0.05    5.7725581 0.0084530366    89.856294    5820.0846 
  457800     3808.532   0.33138277    24.556096  0.018963208         0.05    5.8561392 0.0083378563    90.186703    5819.0536 
  457900    3809.3606   0.33089042     24.56094  0.018963208         0.05    5.9606494 0.0081980648    89.271528    5818.0359 
  458000    3810.1749   0.33158395    24.566197  0.018963208         0.05    5.9854225 0.0082366895    90.316526    5817.0029 
  458100     3810.993   0.32939545    24.571928  0.018963208         0.05    6.0704053 0.0081170047     88.51398    5815.9965 
  458200    3811.7967   0.32972084     24.57629  0.018963208         0.05    6.1280229 0.0079703879    89.616251    5814.9736 
  458300    3812.5781   0.33068744     24.58091  0.018963208         0.05    5.4467698 0.0079399617    91.950991    5813.9172 
  458400    3813.3784   0.33049417    24.586147  0.018963208         0.05    5.0532012  0.008306093    90.157082    5812.8863 
  458500      3814.21   0.32998835    24.591373  0.018963208         0.05    4.8252425 0.0083052354    90.495608    5811.8506 
  458600    3815.0416    0.3297643    24.596259  0.018963208         0.05    5.0020248 0.0082940069    90.815562    5810.8101 
  458700    3815.8685   0.33036608    24.600154  0.018963208         0.05    4.9576322 0.0082448981     90.04515    5809.7808 
  458800    3816.7154   0.33083098    24.605278  0.018963208         0.05    4.9760364 0.0085730385    90.745496    5808.7414 
  458900    3817.5615   0.33074508    24.610856  0.018963208         0.05     5.155607 0.0084142765    90.823644    5807.7007 
  459000    3818.3977   0.33153577    24.616206  0.018963208         0.05    5.0785966 0.0083256862    89.524226    5806.6789 
  459100    3819.2636   0.33089184    24.622058  0.018963208         0.05    5.1828632 0.0089326226    89.774266    5805.6534 
  459200    3820.1416   0.33117134    24.628408  0.018963208         0.05    5.5386328 0.0088220054    91.058345    5804.6094 
  459300    3821.0202    0.3312778    24.634433  0.018963208         0.05    5.6036022 0.0087864431    88.638486    5803.6006 
  459400    3821.8929   0.33109595    24.640722  0.018963208         0.05    5.6881619 0.0086589501    88.495118    5802.5939 
  459500    3822.7264   0.33129598    24.646857  0.018963208         0.05    5.3748597 0.0090760592    90.714133    5801.5547 
  459600    3823.5982   0.33107514    24.653512  0.018963208         0.05    5.4679191 0.0081877466    89.531603    5800.5325 
  459700    3824.4112   0.33097035    24.659417  0.018963208         0.05    5.5606692 0.0081224845    90.834285    5799.4915 
  459800    3825.2204   0.33186711    24.664366  0.018963208         0.05    5.6525267   0.00803568    89.357664    5798.4718 
  459900    3826.0467   0.33100146    24.669224  0.018963208         0.05    5.5793115 0.0087003722     90.22958    5797.4394 
  460000    3826.9202   0.33227066    24.674275  0.018963208         0.05    5.6354648 0.0086139655    88.786772    5796.4281 
  460100    3827.7919   0.33097767    24.680271  0.018963208         0.05    5.7310003   0.00868517    88.030023    5795.4281 
  460200    3828.6459   0.33078593    24.686091  0.018963208         0.05    5.8019129 0.0084894674    90.890088    5794.3861 
  460300    3829.4889   0.33186112    24.691415  0.018963208         0.05    5.8444061 0.0083440326    90.289793    5793.3527 
  460400    3830.3259   0.33131061    24.697151  0.018963208         0.05    5.7208269 0.0085730142    90.629279    5792.3143 
  460500    3831.1778   0.33093786    24.702918  0.018963208         0.05    5.8041726  0.008452711    89.813867    5791.2877 
  460600    3832.0039   0.33109128    24.708679  0.018963208         0.05    6.0458302 0.0082207541    90.562726    5790.2503 
  460700    3832.8196   0.33197817    24.714442  0.018963208         0.05    6.1551577 0.0080663212    89.881249    5789.2226 
  460800    3833.6143   0.33102681    24.720656  0.018963208         0.05    6.0960056 0.0077650733    89.894676    5788.1947 
  460900    3834.3862   0.33102131    24.725968  0.018963208         0.05    6.0952109 0.0078075288    89.508598    5787.1724 
  461000    3835.1698   0.33169546    24.730863  0.018963208         0.05    6.1003419 0.0078571503    89.991828     5786.143 
  461100    3835.9455   0.33199695    24.736274  0.018963208         0.05    6.1307238 0.0080885939    89.620119     5785.119 
  461200    3836.7146   0.33300687    24.741089  0.018963208         0.05    6.0595752  0.007618157     90.41126    5784.0835 
  461300    3837.4841   0.33106921    24.746674  0.018963208         0.05    6.0633018 0.0081608946    89.573304    5783.0601 
  461400    3838.3028   0.33085639    24.752055  0.018963208         0.05    5.9778819  0.008324681    91.396396    5782.0106 
  461500    3839.1332   0.33158588    24.757855  0.018963208         0.05    6.0425089 0.0082396666    90.284818    5780.9769 
  461600    3839.9584   0.33115022    24.763592  0.018963208         0.05      5.21569 0.0092535636    90.090002    5779.9459 
  461700    3840.8719   0.33200962    24.769707  0.018963208         0.05     5.466132 0.0090826388    90.876461    5778.9036 
  461800    3841.7753   0.33196331    24.776121  0.018963208         0.05    5.4619689 0.0089931824    90.100878    5777.8724 
  461900    3842.6681   0.33107336     24.78298  0.018963208         0.05    5.4821268 0.0088518125    89.954771    5776.8433 
  462000    3843.5308   0.33190798    24.788642  0.018963208         0.05    5.4495144 0.0089027146    88.601337    5775.8338 
  462100    3844.4117   0.33150288    24.795486  0.018963208         0.05    5.2959288 0.0090299426    89.929929     5774.805 
  462200    3845.2996   0.33261481    24.800992  0.018963208         0.05    5.2436334 0.0084910773    90.282039     5773.771 
  462300    3846.1449   0.33278722    24.807039  0.018963208         0.05    5.2782215 0.0088050144    91.411017    5772.7211 
  462400    3847.0123   0.33253946    24.812881  0.018963208         0.05    5.3964476 0.0086154359    91.116918    5771.6753 
  462500    3847.8689   0.33233587    24.818727  0.018963208         0.05    5.0730545 0.0091071736    89.470965    5770.6529 
  462600    3848.7909   0.33299001    24.823998  0.018963208         0.05     5.178404 0.0093757523    90.204684      5769.62 
  462700    3849.7129   0.33292454    24.829972  0.018963208         0.05     5.080656 0.0094333736      87.1889    5768.6315 
  462800    3850.5567   0.33174017    24.835802  0.018963208         0.05    5.3977125 0.0082009116    87.223804    5767.6424 
  462900    3851.3738   0.33278364    24.841176  0.018963208         0.05    5.3565338  0.008075995    87.219088    5766.6533 
  463000    3852.1837   0.33165694    24.846554  0.018963208         0.05    5.5395609 0.0080149178    86.364962    5765.6773 
  463100    3853.0159   0.33247401    24.852018  0.018963208         0.05    5.0446451 0.0083341105    87.674678    5764.6812 
  463200    3853.8482   0.33077952    24.857845  0.018963208         0.05    5.0725745 0.0083025519    86.560755     5763.702 
  463300    3854.6776   0.33205052    24.863823  0.018963208         0.05    5.1383419 0.0082851158    86.935049     5762.717 
  463400    3855.5053   0.33285956    24.869341  0.018963208         0.05    5.4543951 0.0082662628    86.336997    5761.7411 
  463500    3856.3373   0.33268431    24.874881  0.018963208         0.05    5.4426809 0.0084682534    86.899998    5760.7565 
  463600    3857.1855   0.33136963    24.880587  0.018963208         0.05    5.4251328  0.008500001    88.081748     5759.754 
  463700    3858.0393   0.33275674    24.886547  0.018963208         0.05    5.5918212 0.0083913798     86.69584    5758.7723 
  463800     3858.869   0.33162798    24.892314  0.018963208         0.05    5.9253957 0.0083447442    87.850455    5757.7731 
  463900    3859.6973   0.33110701    24.897182  0.018963208         0.05    5.9988864 0.0082431604    86.879532    5756.7885 
  464000    3860.5161   0.33223345    24.901953  0.018963208         0.05    6.0811676 0.0081338067    85.302407    5755.8284 
  464100    3861.3238   0.33262019    24.906907  0.018963208         0.05    6.1651057 0.0080178627    86.322764    5754.8523 
  464200     3862.121    0.3326564    24.911711  0.018963208         0.05    6.2444568 0.0079180371    86.139471    5753.8789 
  464300    3862.9084   0.33097478    24.915973  0.018963208         0.05    6.3099909 0.0078839138    87.269392    5752.8881 
  464400    3863.6933   0.33079523    24.920476  0.018963208         0.05    5.3368167 0.0078746323    86.914422    5751.9026 
  464500    3864.4758   0.33119288    24.925382  0.018963208         0.05    5.3897987 0.0079003227    89.660542    5750.8764 
  464600    3865.2653   0.33230952    24.930193  0.018963208         0.05    5.5031748 0.0078262175    90.735523    5749.8349 
  464700    3866.0836   0.33124748    24.935291  0.018963208         0.05    5.5067921 0.0086947005    93.193874      5748.76 
  464800    3866.9424   0.33157629    24.940798  0.018963208         0.05    5.4426355 0.0086919681    91.109872    5747.7132 
  464900    3867.8037   0.33160921    24.945901  0.018963208         0.05    5.3027943 0.0088070553    90.505254     5746.675 
  465000    3868.6828   0.33138083    24.951361  0.018963208         0.05    5.1187947 0.0086775964    90.045962    5745.6431 
  465100    3869.5504    0.3316531    24.956978  0.018963208         0.05    4.9662744 0.0084579064    89.285951    5744.6221 
  465200    3870.3884   0.33033187    24.962113  0.018963208         0.05    5.0602633 0.0086348016     91.06564    5743.5759 
  465300    3871.1788   0.33141967    24.966507  0.018963208         0.05    5.5582121 0.0074663677    91.786331    5742.5198 
  465400    3871.9477   0.33148564    24.970679  0.018963208         0.05    5.2211585 0.0078570904    90.691517    5741.4787 
  465500    3872.7401   0.33158014    24.975289  0.018963208         0.05    5.2022422 0.0084351306    91.686171    5740.4239 
  465600    3873.5861   0.33143773    24.979905  0.018963208         0.05    5.3977057  0.008878391    90.809781    5739.3812 
  465700    3874.4736   0.33159852    24.985222  0.018963208         0.05    5.3755867 0.0088636207    90.017747    5738.3496 
  465800    3875.3552   0.33076502    24.990993  0.018963208         0.05    5.5324466 0.0086311742    89.077404    5737.3313 
  465900    3876.2265   0.33059497    24.996552  0.018963208         0.05    5.6196144 0.0087484262    90.492171    5736.2929 
  466000    3877.0921   0.33077037    25.002489  0.018963208         0.05    5.7079072 0.0086339368    88.677334    5735.2804 
  466100    3877.9851   0.33156856    25.008065  0.018963208         0.05    5.4967446 0.0090480782    88.943119     5734.264 
  466200    3878.7587   0.33237258    25.012604  0.018963208         0.05    5.3383113 0.0073748359    89.994589    5733.2325 
  466300    3879.5034   0.33214027    25.017212  0.018963208         0.05    5.2144452 0.0073576994    89.932667    5732.2019 
  466400    3880.1847   0.33137553    25.020934  0.018963208         0.05    5.5034064 0.0082652617    89.386991    5731.1789 
  466500    3880.9177   0.33245557    25.025992  0.018963208         0.05    6.0281456 0.0072670706    90.441594     5730.141 
  466600    3881.6831   0.33229098    25.031033  0.018963208         0.05    5.4236057 0.0080395165    89.551005    5729.1157 
  466700    3882.4821   0.33117661    25.036087  0.018963208         0.05    5.3130962 0.0082881295    89.708541    5728.0881 
  466800    3883.3113   0.33132908    25.040645  0.018963208         0.05    5.4642499 0.0082274842     89.33454    5727.0657 
  466900    3884.1272   0.33071908    25.045905  0.018963208         0.05    5.4913937 0.0082046311    88.730349    5726.0521 
  467000    3884.9422    0.3301838    25.050896  0.018963208         0.05    5.5414516 0.0080706256    87.936598    5725.0499 
  467100    3885.7552   0.33104981    25.055026  0.018963208         0.05    5.1727856  0.008197262    88.682678    5724.0369 
  467200    3886.5796   0.33244207    25.059916  0.018963208         0.05    5.1295793 0.0084876963    90.982358    5722.9912 
  467300    3887.4391    0.3305883    25.065175  0.018963208         0.05    5.1686265 0.0088429778    90.558386    5721.9514 
  467400    3888.3191   0.33083663    25.069745  0.018963208         0.05    5.1378362 0.0087400656    88.470292    5720.9413 
  467500    3889.1845    0.3312308    25.074082  0.018963208         0.05    5.2403972 0.0086159187     88.99243    5719.9236 
  467600    3890.0503   0.33109295    25.079031  0.018963208         0.05     5.294515 0.0088257339    89.968683    5718.8919 
  467700    3890.9344   0.33133838    25.084322  0.018963208         0.05    5.4434387 0.0088751432    91.654395     5717.837 
  467800    3891.7704   0.33226381    25.089334  0.018963208         0.05    5.4744416 0.0080654074    91.926465    5716.7783 
  467900    3892.5776   0.33194929    25.094485  0.018963208         0.05    5.5728994  0.008080866    90.972531    5715.7326 
  468000    3893.3826   0.33169018     25.09957  0.018963208         0.05    5.4084871 0.0083298409    90.829486    5714.6889 
  468100    3894.2231   0.33167258    25.104417  0.018963208         0.05    5.6260512 0.0084255502    90.193937    5713.6539 
  468200     3895.023   0.33264216    25.108932  0.018963208         0.05    5.9096443 0.0080181413     90.23985    5712.6183 
  468300    3895.8277   0.33260829    25.113329  0.018963208         0.05    5.6836739 0.0084358363     90.13515    5711.5841 
  468400    3896.6666   0.33139364    25.119014  0.018963208         0.05    5.9160861 0.0083201972     89.80579    5710.5545 
  468500    3897.4865   0.33153004    25.123791  0.018963208         0.05    5.9956597 0.0082047893    89.174332    5709.5338 
  468600    3898.2711   0.33141212    25.128477  0.018963208         0.05    6.2032855  0.007813046    90.503633    5708.4944 
  468700    3899.0515   0.33135702     25.13328  0.018963208         0.05    6.0835935 0.0072936661    90.153109    5707.4598 
  468800    3899.7938   0.33136076    25.137451  0.018963208         0.05    6.0420156 0.0072921658    90.494124    5706.4205 
  468900    3900.5266   0.33102508    25.141906  0.018963208         0.05    6.1139298  0.007541816    91.767876    5705.3637 
  469000    3901.2809   0.33058211    25.146964  0.018963208         0.05    6.2051144 0.0075068928    88.957531     5704.346 
  469100    3902.0281   0.33001177    25.151741  0.018963208         0.05    6.2743897 0.0074310111    87.849296    5703.3442 
  469200     3902.767   0.33144097    25.155371  0.018963208         0.05    6.3524568 0.0073406581    88.576002    5702.3318 
  469300     3903.493    0.3309233    25.160373  0.018963208         0.05    5.2898911  0.007159478    89.201376    5701.3104 
  469400    3904.2059   0.33101064    25.164811  0.018963208         0.05    5.3813818 0.0070735679    88.357016     5700.301 
  469500    3904.8971   0.33140959    25.168725  0.018963208         0.05    5.1095537 0.0066551993    89.558386    5699.2745 
  469600     3905.589   0.33151692    25.172764  0.018963208         0.05    4.9567754 0.0069638923    90.302662    5698.2375 
  469700    3906.3223   0.33151981    25.177832  0.018963208         0.05    4.9281412 0.0081916513     89.51943    5697.2115 
  469800    3907.1609   0.33220026    25.182627  0.018963208         0.05    5.0813759 0.0085414231    89.721264    5696.1825 
  469900    3908.0148   0.33191371    25.188444  0.018963208         0.05     5.187658 0.0085322562    88.797957    5695.1666 
  470000    3908.8905   0.33154386    25.193796  0.018963208         0.05     5.343879 0.0092721795    89.498438    5694.1407 
  470100    3909.8082   0.33054122    25.199473  0.018963208         0.05    5.3863051 0.0086974082    88.089185    5693.1349 
  470200    3910.7016   0.33005799    25.205009  0.018963208         0.05    5.3619112 0.0089680096    89.786681    5692.1049 
  470300    3911.5932   0.33011537    25.210886  0.018963208         0.05    5.4510698 0.0088486638    88.424522    5691.0942 
  470400    3912.4495   0.33171906    25.216937  0.018963208         0.05    5.5367078 0.0076327612    88.702183    5690.0794 
  470500    3913.2518   0.33177363    25.221871  0.018963208         0.05    5.6177384 0.0081619771    90.756786    5689.0359 
  470600    3914.0635   0.32938732    25.226626  0.018963208         0.05    5.7017786 0.0080636331    89.046635    5688.0161 
  470700    3914.8681   0.33006765    25.232092  0.018963208         0.05    5.8310824 0.0081958024     90.11348    5686.9814 
  470800    3915.6836   0.33096108    25.237439  0.018963208         0.05    5.7124329 0.0081039578    87.980757    5685.9768 
  470900    3916.4897   0.33072362     25.24266  0.018963208         0.05    6.1175351 0.0080147765      89.2321    5684.9543 
  471000    3917.2861   0.33041348    25.247836  0.018963208         0.05    5.9610536 0.0079139109    87.792458    5683.9524 
  471100    3918.0829   0.33077074    25.252971  0.018963208         0.05     5.936878 0.0079942045    88.954758    5682.9338 
  471200    3918.8765   0.33067333    25.257211  0.018963208         0.05    6.0286761 0.0077823065     89.06719    5681.9134 
  471300    3919.6879   0.33086262     25.26257  0.018963208         0.05    6.0642039 0.0080980048    89.152856    5680.8919 
  471400    3920.4924    0.3315004    25.267722  0.018963208         0.05    6.1604826 0.0079740376    88.700926    5679.8767 
  471500    3921.3014   0.33004375    25.273507  0.018963208         0.05    5.7745451 0.0082363458    89.018022    5678.8569 
  471600    3922.1407   0.33033309    25.278802  0.018963208         0.05    5.6950474 0.0085975233    89.472167    5677.8307 
  471700    3922.9952   0.33107309    25.284171  0.018963208         0.05    5.7755144 0.0084827503    88.124906    5676.8236 
  471800    3923.8356   0.33099628    25.290098  0.018963208         0.05    5.7878124 0.0083368353    89.023483    5675.8037 
  471900    3924.6644   0.32982407    25.295443  0.018963208         0.05    5.1063376 0.0082927668    90.344365    5674.7653 
  472000    3925.4975    0.3307582    25.300607  0.018963208         0.05    5.0145529 0.0083877975    89.389544    5673.7401 
  472100    3926.3376   0.32972493    25.305467  0.018963208         0.05    5.1306117 0.0082959791    90.477024    5672.6998 
  472200    3927.2075   0.33055528    25.310977  0.018963208         0.05    4.9248076 0.0087314599     90.13637    5671.6642 
  472300    3928.0665    0.3319588    25.315924  0.018963208         0.05    5.1444818 0.0081282198    88.803409    5670.6472 
  472400    3928.8686   0.33059644    25.321537  0.018963208         0.05    5.2858363 0.0080650741    90.038423    5669.6128 
  472500     3929.674   0.32983087    25.326536  0.018963208         0.05    5.2955129 0.0080277104    88.350371    5668.6021 
  472600     3930.472   0.32999493    25.331098  0.018963208         0.05    5.5316174 0.0078894777    89.389868    5667.5767 
  472700    3931.2725   0.33061246    25.335828  0.018963208         0.05    5.0047706 0.0078729786    89.658606    5666.5475 
  472800    3932.1417   0.32961432    25.341239  0.018963208         0.05    5.0039335 0.0088105209    90.115339     5665.512 
  472900    3933.0553   0.33130325    25.347077  0.018963208         0.05    5.1161113 0.0083591304    91.583489    5664.4565 
  473000    3933.8941   0.33012723    25.352026  0.018963208         0.05    4.9603271 0.0083870559      88.8501    5663.4385 
  473100    3934.7496   0.33174756    25.356939  0.018963208         0.05    4.7981914 0.0086608055    90.308301    5662.4003 
  473200    3935.6131    0.3314341    25.362428  0.018963208         0.05    4.8869015  0.008609461    88.136016    5661.3923 
  473300    3936.4034   0.33142648    25.366942  0.018963208         0.05    6.2484378 0.0073255911    90.512149    5660.3512 
  473400    3937.1671    0.3309353    25.371932  0.018963208         0.05    4.9460726 0.0086400877    89.772576    5659.3202 
  473500    3938.0319   0.33203377    25.377404  0.018963208         0.05    5.0325495 0.0085377837    90.365075     5658.281 
  473600     3938.869   0.33117415    25.382995  0.018963208         0.05    5.1122927 0.0085262412    90.035756    5657.2463 
  473700    3939.7184   0.33049694    25.388432  0.018963208         0.05    5.1860752 0.0085617179     90.80178    5656.2011 
  473800    3940.5713   0.33168847    25.394079  0.018963208         0.05    5.1927286 0.0084896478    88.632997    5655.1859 
  473900    3941.4164   0.33015197    25.399788  0.018963208         0.05    5.1940265 0.0083331609    88.106894    5654.1781 
  474000    3942.2438    0.3309714    25.404191  0.018963208         0.05    5.0272427 0.0082465602    89.216251    5653.1545 
  474100     3943.071   0.32996745    25.409264  0.018963208         0.05    5.2318727 0.0090993059    88.757293    5652.1374 
  474200    3943.9769   0.33098625    25.414928  0.018963208         0.05    5.1565883 0.0090177702    90.419991    5651.0972 
  474300    3944.8681   0.33114519    25.420545  0.018963208         0.05    4.9781802 0.0092974598    90.025456    5650.0624 
  474400    3945.7911   0.33190038     25.42601  0.018963208         0.05    5.1273002 0.0091679216    88.713515    5649.0457 
  474500    3946.6965   0.32977787    25.431639  0.018963208         0.05     5.217839 0.0091109064    89.749198    5648.0146 
  474600    3947.6095   0.33036738    25.437608  0.018963208         0.05    5.3214897 0.0090895563    89.688514    5646.9843 
  474700    3948.4857   0.33150414    25.442734  0.018963208         0.05    5.4053632 0.0087296614    89.902827     5645.951 
  474800    3949.3462   0.33196241     25.44846  0.018963208         0.05    4.8058594 0.0085374569    88.096105     5644.943 
  474900    3950.1945   0.33193543    25.453439  0.018963208         0.05    5.2064859 0.0084314678    89.107343    5643.9206 
  475000    3950.9701   0.33279607    25.458694  0.018963208         0.05    6.4527389 0.0075960064    89.407779     5642.894 
  475100    3951.7412   0.33125738    25.464192  0.018963208         0.05     5.180419 0.0084728509    88.434608     5641.881 
  475200     3952.595   0.33094675    25.469526  0.018963208         0.05    5.6001596 0.0086681646    90.858527    5640.8346 
  475300    3953.4573   0.33171571    25.474626  0.018963208         0.05    5.3102684 0.0087873348     91.10912    5639.7848 
  475400    3954.3305   0.33056705    25.479944  0.018963208         0.05    5.3847023 0.0086716384    88.636069    5638.7688 
  475500    3955.1906   0.33017387    25.485393  0.018963208         0.05    5.6661179 0.0087953253    89.392745    5637.7422 
  475600    3956.0689   0.33003798    25.490592  0.018963208         0.05    5.6134131 0.0087308127    89.285305    5636.7171 
  475700    3956.9314   0.33212989    25.495482  0.018963208         0.05    5.8434896  0.008552526    88.793783    5635.6988 
  475800    3957.8342   0.33185541    25.501948  0.018963208         0.05    5.3379435 0.0092118559    90.965408    5634.6508 
  475900    3958.7614   0.33142492    25.507872  0.018963208         0.05    5.1774323 0.0093265567    88.879885    5633.6312 
  476000    3959.6114   0.33148514    25.513878  0.018963208         0.05    4.9091874 0.0081870834    88.988238      5632.61 
  476100    3960.4371   0.33039145    25.519293  0.018963208         0.05    4.9959451 0.0081542779    89.909938    5631.5761 
  476200    3961.2628   0.33097543    25.523994  0.018963208         0.05     5.091835 0.0086823312    91.449144    5630.5216 
  476300    3962.1147   0.33091196    25.528818  0.018963208         0.05    5.1713726 0.0083054437    91.040359    5629.4725 
  476400    3962.9449   0.33034268    25.534645  0.018963208         0.05    4.8809613 0.0082498111    91.214569    5628.4211 
  476500    3963.7684   0.33020535    25.539903  0.018963208         0.05    5.0021882 0.0078671887    91.357079    5627.3677 
  476600    3964.5683   0.33113561    25.544315  0.018963208         0.05    5.1302026 0.0080070223    90.623796    5626.3241 
  476700    3965.3833   0.33077019    25.548993  0.018963208         0.05    5.6431529   0.00811119    91.382537    5625.2703 
  476800    3966.1906   0.32926038    25.554244  0.018963208         0.05    5.6440969 0.0079543185    89.731475    5624.2387 
  476900    3967.0006   0.32855829    25.559797  0.018963208         0.05    5.2794914  0.008357639    89.416566    5623.2113 
  477000    3967.8324   0.33042868    25.565384  0.018963208         0.05    5.2595122  0.008276693    88.120332     5622.202 
  477100    3968.6655   0.33169139    25.570694  0.018963208         0.05    5.3663119 0.0091815141    89.213462    5621.1773 
  477200    3969.5877   0.33196137    25.576844  0.018963208         0.05    4.8126204 0.0094910213    90.495451    5620.1352 
  477300    3970.5217   0.33153889    25.583072  0.018963208         0.05    4.9833661 0.0092169846    89.394574     5619.108 
  477400    3971.4269   0.33079472    25.589076  0.018963208         0.05    5.0729596 0.0090532672    88.860302    5618.0881 
  477500     3972.328   0.33157033    25.594602  0.018963208         0.05    5.1606811 0.0089568374    88.759265    5617.0695 
  477600    3973.2194   0.33155269     25.60053  0.018963208         0.05    5.2414525 0.0088395916    88.578827    5616.0534 
  477700    3974.0989   0.33024023    25.606887  0.018963208         0.05    5.3293954 0.0090169278    90.370313    5615.0128 
  477800    3974.9943   0.33009895    25.613134  0.018963208         0.05     5.418939 0.0088790379    89.206536     5613.988 
  477900    3975.8765   0.33068725    25.618239  0.018963208         0.05     5.355995  0.008655016    89.261649    5612.9623 
  478000    3976.7715   0.33238128    25.623689  0.018963208         0.05    5.1871409 0.0087458802    89.521437    5611.9331 
  478100    3977.6831   0.33075148    25.629552  0.018963208         0.05    5.2455257 0.0091502206    89.693731    5610.9015 
  478200    3978.5912   0.33054266    25.635104  0.018963208         0.05    5.3045538 0.0082234655    89.101001    5609.8779 
  478300    3979.4278   0.33138777    25.639667  0.018963208         0.05    5.5406608 0.0085133847    89.703553    5608.8461 
  478400    3980.2898   0.33082329    25.644652  0.018963208         0.05    5.6273035 0.0084086235    90.553381    5607.8029 
  478500    3981.1356    0.3303105    25.649561  0.018963208         0.05    5.4954173 0.0084669459    90.495608    5606.7603 
  478600    3981.9741   0.33105566    25.654628  0.018963208         0.05    5.5949694 0.0084294933    89.724795    5605.7281 
  478700    3982.8299   0.32969774    25.660485  0.018963208         0.05    5.5834279 0.0087405586    90.581776    5604.6844 
  478800    3983.6916    0.3296313    25.665818  0.018963208         0.05    5.6591067   0.00794008    91.311435    5603.6311 
  478900    3984.4844   0.33193208    25.670349  0.018963208         0.05    5.7147339 0.0079079214    89.013904    5602.6085 
  479000    3985.2725   0.33094964    25.675097  0.018963208         0.05    5.7935064 0.0078688537    87.862196    5601.6018 
  479100    3986.0611   0.33198943    25.679316  0.018963208         0.05    5.8723667 0.0080957626    89.119952    5600.5777 
  479200    3986.8845   0.33063263    25.684574  0.018963208         0.05    5.9698554 0.0081806871    89.007651     5599.555 
  479300    3987.6984   0.33059756    25.689706  0.018963208         0.05    6.0447532 0.0080863799    88.454564      5598.54 
  479400     3988.482   0.33000404    25.694825  0.018963208         0.05    6.1268632 0.0076956935    90.500353    5597.4971 
  479500     3989.249   0.32956555    25.699716  0.018963208         0.05    6.1948273 0.0078644605    89.254317     5596.471 
  479600    3990.0274   0.33018547     25.70507  0.018963208         0.05    6.1557514 0.0077782855    89.535291     5595.441 
  479700    3990.8002   0.32926983    25.710434  0.018963208         0.05    6.2352477 0.0076709286    88.364052     5594.427 
  479800    3991.5629   0.33020079    25.715912  0.018963208         0.05    6.1883945 0.0075355636    89.409761    5593.3986 
  479900    3992.3825   0.33050035    25.721678  0.018963208         0.05    5.6130978 0.0082378468    89.859374    5592.3641 
  480000    3993.1961   0.33110822    25.727557  0.018963208         0.05    5.5288947 0.0080973968    89.662056    5591.3323 
  480100    3994.0242   0.33004869    25.733148  0.018963208         0.05    5.7090046 0.0082760487    88.342816    5590.3184 
  480200    3994.8994   0.33072476    25.738992  0.018963208         0.05    5.1481731 0.0089177345    92.358616    5589.2512 
  480300    3995.7857   0.33070768    25.744321  0.018963208         0.05    5.2394732 0.0088234717    90.117933    5588.2132 
  480400    3996.6623   0.33100332    25.750386  0.018963208         0.05    5.2870032 0.0087002777    88.806474    5587.1928 
  480500    3997.5208   0.32964269    25.756354  0.018963208         0.05      5.57679 0.0083495937     89.49099    5586.1631 
  480600    3998.4034   0.33026489    25.762562  0.018963208         0.05    5.6543683 0.0087471261    91.288441    5585.1095 
  480700    3999.2771   0.32957916    25.768681  0.018963208         0.05    5.7343687 0.0086720295    88.929748    5584.0874 
  480800    4000.1383    0.3311744    25.774266  0.018963208         0.05    5.7326359  0.008646328    90.052439      5583.05 
  480900     4000.997   0.33072685    25.780592  0.018963208         0.05     5.819331 0.0085180961     89.44328    5582.0208 
  481000    4001.8433   0.32958344    25.786632  0.018963208         0.05    5.9031338 0.0083965441    88.130812    5581.0095 
  481100    4002.6537   0.33057251    25.791453  0.018963208         0.05     6.096514 0.0079382481    90.545503    5579.9655 
  481200    4003.4398   0.33049986    25.797049  0.018963208         0.05    6.1012696 0.0080653132    90.183116    5578.9263 
  481300    4004.2275   0.33189306     25.80207  0.018963208         0.05     6.351463 0.0077750601    89.462492    5577.8967 
  481400    4005.0146   0.33090518    25.807682  0.018963208         0.05    5.9374668 0.0079290964    90.401282    5576.8545 
  481500    4005.8027   0.33062547     25.81291  0.018963208         0.05    6.0874663 0.0077433601     88.54627    5575.8373 
  481600    4006.5981   0.33098607    25.818431  0.018963208         0.05    6.0177733 0.0079521764    89.426079    5574.8081 
  481700    4007.3885   0.33237878    25.823331  0.018963208         0.05    5.7074345 0.0082346139    89.221432    5573.7816 
  481800    4008.2102    0.3329202    25.828489  0.018963208         0.05    5.6408382 0.0080773581     89.73399    5572.7481 
  481900    4009.0051   0.33214334    25.833121  0.018963208         0.05    5.7203269 0.0081236668    90.853823    5571.6999 
  482000    4009.8233   0.33072127    25.837701  0.018963208         0.05     5.806897 0.0079849359     89.30135    5570.6722 
  482100    4010.6317    0.3312587    25.842864  0.018963208         0.05    5.8866694 0.0080450503    88.381927    5569.6569 
  482200    4011.4316   0.33098124    25.847484  0.018963208         0.05    5.9705116 0.0079313247     89.29576    5568.6292 
  482300    4012.2207   0.33049907    25.852543  0.018963208         0.05     6.047763 0.0078357489    89.524952    5567.5984 
  482400     4012.991   0.33136825    25.857081  0.018963208         0.05    5.6845312  0.007386879     89.00123    5566.5746 
  482500    4013.8109   0.33064519    25.862015  0.018963208         0.05    5.7665225 0.0083421559    88.875704    5565.5525 
  482600    4014.6402   0.33090096    25.867493  0.018963208         0.05    5.8421506 0.0082397465    89.018419    5564.5283 
  482700    4015.4618   0.33265611    25.872794  0.018963208         0.05    5.4876994 0.0085878106    89.411362    5563.4989 
  482800    4016.2901   0.33260051    25.878205  0.018963208         0.05    5.4757179 0.0082382391    90.203364    5562.4589 
  482900     4017.106   0.33172686    25.882746  0.018963208         0.05    5.5987504 0.0080091795    89.821368    5561.4239 
  483000    4017.9184   0.33123298    25.888109  0.018963208         0.05    5.6798153 0.0080970269    88.404654     5560.408 
  483100    4018.7243   0.33179454    25.893203  0.018963208         0.05    5.7404301 0.0080122807    87.753481     5559.401 
  483200    4019.5216   0.33193762    25.899162  0.018963208         0.05    5.8060189 0.0079208124    88.711788    5558.3808 
  483300    4020.3199   0.33145254    25.904363  0.018963208         0.05    5.8826365 0.0082644658    91.231969    5557.3272 
  483400    4021.1422   0.33125265    25.908952  0.018963208         0.05    5.9394802 0.0081599323    88.548383    5556.3092 
  483500    4021.9505    0.3305397     25.91423  0.018963208         0.05     6.041154 0.0081987476    89.947228    5555.2723 
  483600     4022.788   0.32999207    25.919961  0.018963208         0.05    4.9263619 0.0090574685    90.211028    5554.2319 
  483700    4023.6747   0.33097578    25.926136  0.018963208         0.05    5.0374474  0.008550568    90.114119    5553.1928 
  483800    4024.5253   0.33178754    25.931364  0.018963208         0.05    5.1538783 0.0084108237    89.075739    5552.1674 
  483900    4025.3522   0.33056006    25.936803  0.018963208         0.05    5.2363796 0.0086437533    90.587019     5551.122 
  484000    4026.2172    0.3295961    25.942482  0.018963208         0.05    5.3362165 0.0086018171    89.788699    5550.0871 
  484100    4027.0747   0.32978779     25.94723  0.018963208         0.05    5.8857708 0.0083740033    89.702594    5549.0533 
  484200    4027.9204    0.3293194    25.952687  0.018963208         0.05    5.8603381 0.0084225635    89.835624    5548.0177 
  484300    4028.7339   0.33006953    25.958132  0.018963208         0.05    5.9421437 0.0077286367    89.522392    5546.9862 
  484400    4029.5395   0.33019701    25.963065  0.018963208         0.05     6.026111 0.0081956664    88.413506    5545.9695 
  484500     4030.361   0.33028427    25.967983  0.018963208         0.05    5.5142942 0.0082484537    89.601548    5544.9369 
  484600    4031.1984   0.33180362    25.973165  0.018963208         0.05    5.5544571 0.0087529568    89.281808    5543.9085 
  484700    4032.0693   0.33187404    25.978457  0.018963208         0.05    5.6191252 0.0088809042    89.472263    5542.8775 
  484800    4032.9492   0.33232888     25.98407  0.018963208         0.05    5.7069569 0.0087448816    89.655616    5541.8441 
  484900    4033.8119   0.33195241    25.989343  0.018963208         0.05    5.8569989 0.0084896577    88.820277    5540.8217 
  485000    4034.6612   0.33193427    25.994062  0.018963208         0.05    5.8792828 0.0084474473    89.574605    5539.7893 
  485100    4035.4983   0.33144274    25.999741  0.018963208         0.05    5.5439577 0.0082684892    88.370754    5538.7729 
  485200    4036.3268   0.33124816    26.004726  0.018963208         0.05    5.5962131  0.008424023    90.272828    5537.7312 
  485300    4037.1636     0.331743     26.01043  0.018963208         0.05    5.6461148 0.0083104303    88.253851    5536.7164 
  485400    4037.9891   0.33130304    26.015939  0.018963208         0.05    5.7639103 0.0081752613    89.093052    5535.6902 
  485500    4038.8025   0.33177671    26.020948  0.018963208         0.05    5.8844712 0.0080431872     88.42866    5534.6729 
  485600    4039.6276   0.33159402    26.026753  0.018963208         0.05     5.775339 0.0080710828    89.074169    5533.6468 
  485700    4040.4822   0.33090048    26.032278  0.018963208         0.05    5.7359765  0.008536743    89.475126    5532.6154 
  485800    4041.3304    0.3310463    26.037289  0.018963208         0.05    5.8267547 0.0084093714    89.013281    5531.5901 
  485900    4042.1715   0.33095353    26.042801  0.018963208         0.05     5.865339 0.0083950116    88.868737    5530.5667 
  486000    4043.0055   0.33108569    26.048235  0.018963208         0.05    5.9484232 0.0082859653    88.220698     5529.552 
  486100    4043.8291   0.33008408    26.054021  0.018963208         0.05    6.0349967 0.0081706377    88.754363    5528.5301 
  486200     4044.663   0.33179911    26.058637  0.018963208         0.05    5.2524614 0.0087673195    89.594581    5527.4969 
  486300    4045.5277    0.3306452    26.064884  0.018963208         0.05    5.3598578 0.0086477003    88.637324    5526.4764 
  486400     4046.381   0.33178519    26.069344  0.018963208         0.05    5.4327105 0.0081455056     88.47451    5525.4581 
  486500    4047.2264   0.33027774    26.074881  0.018963208         0.05    5.5111985 0.0084346346    90.037844     5524.419 
  486600    4048.0425   0.32946291    26.079968  0.018963208         0.05     5.905692 0.0080729848    88.789047    5523.3964 
  486700    4048.8456   0.33043194    26.084496  0.018963208         0.05    5.9572511 0.0074852047    88.746833    5522.3743 
  486800       4049.6   0.33112012    26.089767  0.018963208         0.05    6.0285346 0.0075116325    90.094472    5521.3344 
  486900    4050.3689   0.33148813    26.094818  0.018963208         0.05    6.0955878 0.0079648812    88.565248    5520.3146 
  487000    4051.1708   0.33236043    26.099761  0.018963208         0.05    5.7507495 0.0084875101    90.390665    5519.2708 
  487100    4051.9735   0.33210102    26.104767  0.018963208         0.05    5.3203499 0.0079255756    88.768545    5518.2483 
  487200    4052.7653   0.33074654    26.109924  0.018963208         0.05    5.5053409 0.0079053288    89.496986     5517.216 
  487300    4053.5549   0.33036138    26.115163  0.018963208         0.05    5.5919345 0.0078604276    88.277163       5516.2 
  487400    4054.3851   0.33035205    26.119122  0.018963208         0.05    5.6476084 0.0086940323    90.163265     5515.159 
  487500    4055.2451   0.33113766      26.1238  0.018963208         0.05    5.9211061 0.0084390723    90.065433    5514.1192 
  487600     4056.092   0.33107875    26.128053  0.018963208         0.05    5.9274545  0.008433108    89.362938    5513.0886 
  487700    4056.9275   0.33091705    26.132372  0.018963208         0.05    6.1167642  0.008167061    89.041739    5512.0621 
  487800    4057.7605   0.33024101    26.136817  0.018963208         0.05    5.6096366 0.0086191049    90.420147    5511.0177 
  487900    4058.5793    0.3306122    26.141486  0.018963208         0.05    6.0752623 0.0081861942    91.286195    5509.9622 
  488000    4059.3957   0.33010705    26.146307  0.018963208         0.05    5.3606375 0.0080942835    89.910844    5508.9243 
  488100    4060.1949   0.32967404    26.150706  0.018963208         0.05    5.6093475 0.0078395832     88.30333    5507.9076 
  488200    4060.9756   0.33092172    26.155242  0.018963208         0.05    5.6842456 0.0077627119    89.979356    5506.8687 
  488300    4061.7449   0.32920955    26.159466  0.018963208         0.05    5.8188127 0.0076314844    89.233125    5505.8396 
  488400    4062.4959   0.33011289    26.163816  0.018963208         0.05    5.2475771 0.0073507196    89.713223    5504.8041 
  488500    4063.2492   0.33182926    26.168659  0.018963208         0.05     5.480989 0.0083343798     90.85772    5503.7539 
  488600      4064.11   0.33045355    26.174016  0.018963208         0.05     5.374685  0.008624449    90.962429    5502.7023 
  488700    4064.9674   0.33152589    26.178867  0.018963208         0.05    5.4597625   0.00851571    88.514914    5501.6825 
  488800      4065.81   0.33065743    26.184918  0.018963208         0.05    5.5100033 0.0082105188    89.626132    5500.6481 
  488900    4066.6287   0.33079813    26.189839  0.018963208         0.05    5.6135388 0.0082564033    90.774994    5499.5988 
  489000    4067.4522   0.33087815       26.195  0.018963208         0.05    5.7201319 0.0081912032    88.820522    5498.5749 
  489100    4068.2668   0.33107783    26.199612  0.018963208         0.05    5.8015854 0.0080899538    88.800551    5497.5511 
  489200    4069.0711   0.33010215    26.205026  0.018963208         0.05    5.8802061 0.0079911464     88.44244    5496.5321 
  489300    4069.8658   0.33072655    26.209624  0.018963208         0.05    5.9750106 0.0078797052    89.234644    5495.5026 
  489400    4070.6394   0.33118675     26.21452  0.018963208         0.05    6.2052531 0.0076036314    90.244568    5494.4599 
  489500    4071.3955   0.33072866    26.219418  0.018963208         0.05    6.2823232 0.0074936756     88.89537    5493.4348 
  489600    4072.1345   0.33177677    26.224347  0.018963208         0.05    5.6241716 0.0071988671    89.881654    5492.3967 
  489700    4072.8544    0.3303999    26.229281  0.018963208         0.05    5.5962692 0.0071736767    90.645888    5491.3489 
  489800    4073.5713   0.33150062    26.233642  0.018963208         0.05    5.6850587 0.0071711033    89.939783      5490.31 
  489900    4074.2845     0.330639    26.238607  0.018963208         0.05    5.8260035 0.0069112363    90.181817     5489.268 
  490000    4075.0849   0.33155364    26.244037  0.018963208         0.05     5.924232  0.008123342    89.003137    5488.2413 
  490100    4075.8906   0.32972239    26.249805  0.018963208         0.05    6.0932282 0.0080781797    90.050331    5487.2009 
  490200    4076.6938   0.33026846     26.25529  0.018963208         0.05    6.1735482 0.0079762629    88.861883    5486.1759 
  490300     4077.487   0.33060462    26.260396  0.018963208         0.05    6.2532715 0.0078774992    89.315365     5485.145 
  490400    4078.2704   0.32929471    26.266266  0.018963208         0.05    6.3297076 0.0077838955    88.582119    5484.1236 
  490500    4079.0446   0.32952367    26.271614  0.018963208         0.05    6.4225672 0.0076751249    88.260407    5483.1065 
  490600    4079.8077   0.32954733    26.276187  0.018963208         0.05     6.494876 0.0075922154    88.976515    5482.0799 
  490700    4080.6322   0.33058232     26.28191  0.018963208         0.05    5.2433052 0.0090979674    89.806521    5481.0425 
  490800    4081.5327   0.32917286    26.288212  0.018963208         0.05    5.4180625 0.0086127798    89.144595    5480.0136 
  490900    4082.3685   0.33006565    26.293902  0.018963208         0.05    5.9322235  0.008214223    89.801099    5478.9761 
  491000    4083.1856     0.331083    26.300182  0.018963208         0.05    6.0095139 0.0081129871    87.937206    5477.9631 
  491100    4083.9899   0.33198975    26.305358  0.018963208         0.05    6.0327457 0.0079973791    90.113228    5476.9216 
  491200    4084.8183   0.33051541     26.31129  0.018963208         0.05    5.5124359 0.0086338344    89.463847    5475.8884 
  491300     4085.668    0.3302977    26.316637  0.018963208         0.05    5.2078458 0.0082501284    90.233657    5474.8453 
  491400    4086.4904   0.33055102    26.322571  0.018963208         0.05    5.3073237 0.0082276089    89.925301    5473.8061 
  491500    4087.3179   0.33009619    26.328579  0.018963208         0.05    5.3251815 0.0082996659    91.217405    5472.7506 
  491600    4088.1451   0.33036794    26.333569  0.018963208         0.05    4.9196073 0.0082452533    88.724849    5471.7269 
  491700    4088.9725   0.33072074    26.339739  0.018963208         0.05    5.2338073 0.0082638943    90.469334    5470.6807 
  491800    4089.8313   0.33093332    26.345589  0.018963208         0.05    5.2721797 0.0088778177    90.063306    5469.6396 
  491900    4090.7051   0.33163994    26.351399  0.018963208         0.05    5.3621561 0.0087509694    89.598504    5468.6045 
  492000    4091.5746   0.33082395     26.35791  0.018963208         0.05    5.4609329 0.0086751035    90.075898    5467.5632 
  492100    4092.4368   0.33008685    26.363069  0.018963208         0.05    5.5122094  0.008557343    88.391389    5466.5437 
  492200    4093.2839   0.33053389    26.368771  0.018963208         0.05    5.7108417 0.0084083078     89.15134    5465.5142 
  492300    4094.1406   0.33080696    26.374453  0.018963208         0.05     5.873374 0.0083991624    90.193123    5464.4713 
  492400    4095.0118   0.33025745     26.37976  0.018963208         0.05    5.4294304 0.0087296289    89.745511    5463.4341 
  492500    4095.8811   0.33106742    26.385759  0.018963208         0.05    5.6012458 0.0084788307    89.557583    5462.3993 
  492600    4096.6971   0.32994312    26.390635  0.018963208         0.05    6.0360886 0.0080007281    89.746298     5461.362 
  492700    4097.4929   0.32948293     26.39584  0.018963208         0.05    6.1205247 0.0079027377    89.138476    5460.3325 
  492800    4098.2789   0.32945146    26.400672  0.018963208         0.05    6.1992395 0.0078089137    89.610066    5459.2969 
  492900    4099.0559   0.32942121    26.405698  0.018963208         0.05    6.2689478  0.007724554    89.213158    5458.2664 
  493000    4099.8243   0.33015957    26.410549  0.018963208         0.05    6.3411821 0.0076363018    88.455963    5457.2457 
  493100    4100.6822   0.33005854    26.416487  0.018963208         0.05    5.1428467 0.0092574871    88.884858    5456.2194 
  493200    4101.5902   0.33004852    26.423012  0.018963208         0.05    5.2244784 0.0090900772    89.661826     5455.183 
  493300    4102.4917    0.3299896    26.429033  0.018963208         0.05    5.3163192 0.0089418499    88.254854    5454.1648 
  493400    4103.3796    0.3306028    26.435117  0.018963208         0.05    5.4226269 0.0087136304    88.940045    5453.1376 
  493500    4104.1779   0.32964192     26.44107  0.018963208         0.05    5.1527624 0.0077336276    88.860133    5452.1114 
  493600    4105.0168   0.33051531    26.445975  0.018963208         0.05    5.7677076 0.0086548724    90.966237    5451.0585 
  493700    4105.8703   0.33105228    26.451646  0.018963208         0.05    5.8286993 0.0082553432    89.924087    5450.0185 
  493800    4106.7132   0.33003574    26.456952  0.018963208         0.05    5.9003066 0.0084542157    90.006504    5448.9776 
  493900    4107.5534   0.32918101    26.462334  0.018963208         0.05    5.9835887 0.0083378228    86.073041    5447.9886 
  494000     4108.382    0.3311035    26.467071  0.018963208         0.05    6.0664528 0.0082244231    86.388602    5446.9952 
  494100    4109.1995   0.33027088    26.471852  0.018963208         0.05    6.1475494 0.0081161581    88.544476    5445.9729 
  494200    4109.9936   0.32990257    26.477508  0.018963208         0.05    6.2298016 0.0080094098    89.246986    5444.9414 
  494300    4110.7888   0.33145033    26.481775  0.018963208         0.05    6.3535881 0.0078505748    88.718393    5443.9167 
  494400    4111.5552   0.33061899     26.48579  0.018963208         0.05    6.5869905 0.0075691979    88.576077    5442.8939 
  494500    4112.3055   0.33113378    26.490747  0.018963208         0.05    6.6054337 0.0075674543    89.860163    5441.8545 
  494600    4113.0623   0.33102171     26.49568  0.018963208         0.05     6.637994 0.0075291939    89.685216    5440.8173 
  494700    4113.8118   0.33109959    26.500899  0.018963208         0.05    6.7083136 0.0074501548    88.632997    5439.7935 
  494800    4114.5531   0.33089723     26.50581  0.018963208         0.05    6.7824468  0.007368794    88.958154    5438.7656 
  494900    4115.2862    0.3315934    26.509633  0.018963208         0.05    6.8582594 0.0072875706    88.913705    5437.7381 
  495000    4116.0114   0.33064657    26.514016  0.018963208         0.05    6.9487999 0.0071914381    87.240023    5436.7327 
  495100    4116.7204   0.33190126    26.518037  0.018963208         0.05    7.2298877 0.0068919923    90.070868    5435.6904 
  495200    4117.4168   0.33040188    26.522728  0.018963208         0.05    7.1566345 0.0069621389    90.080424     5434.648 
  495300    4118.1092   0.32924883    26.526503  0.018963208         0.05     7.265408 0.0068721731    88.729091    5433.6228 
  495400    4118.7907   0.32931739    26.531278  0.018963208         0.05    7.0872304 0.0069639842    90.889754    5432.5703 
  495500    4119.4871   0.33050301    26.535637  0.018963208         0.05    7.1143371 0.0069329354    89.501398    5431.5351 
  495600    4120.1775   0.33012435    26.540211  0.018963208         0.05    7.1833731 0.0068680726    89.312911    5430.5023 
  495700    4120.8536   0.33055051    26.544285  0.018963208         0.05    7.3099926 0.0066714468    90.007953    5429.4606 
  495800    4121.5182   0.33075712    26.548486  0.018963208         0.05    7.3751285  0.006615407    89.416795    5428.4264 
  495900    4122.1773   0.33186929    26.553316  0.018963208         0.05    7.4426497 0.0065575474    88.499338     5427.404 
  496000    4122.8216   0.33167674    26.557711  0.018963208         0.05    7.7136181 0.0063971475    89.625021    5426.3671 
  496100    4123.4615   0.32975483    26.562177  0.018963208         0.05    5.5311163 0.0063296314    89.205189    5425.3355 
  496200    4124.1016   0.33154507    26.566384  0.018963208         0.05    5.5701769  0.006396923    90.341894    5424.2895 
  496300    4124.7382   0.33067737    26.571006  0.018963208         0.05    5.7075183 0.0062646995    88.822177    5423.2627 
  496400    4125.4056    0.3309684    26.576247  0.018963208         0.05    6.3083636 0.0078989079    91.003737    5422.2085 
  496500    4126.2076   0.33025053    26.582324  0.018963208         0.05    6.1724938 0.0080606523    91.219151    5421.1517 
  496600    4127.0093   0.33015225    26.587704  0.018963208         0.05     6.249743 0.0079636178    88.646991    5420.1271 
  496700    4127.7996   0.33110092    26.593183  0.018963208         0.05    6.3359022 0.0078550048    88.870243    5419.0995 
  496800    4128.5735   0.33202259    26.599294  0.018963208         0.05    6.5764712  0.007528423    88.073592    5418.0823 
  496900    4129.3293   0.33106462    26.605316  0.018963208         0.05      6.53088 0.0075136869    90.025707    5417.0401 
  497000    4130.0841   0.33060455     26.61085  0.018963208         0.05    6.5467445 0.0075404144    89.564716    5416.0036 
  497100    4130.8344   0.33112067    26.616747  0.018963208         0.05    6.6228463 0.0074559608    88.509591    5414.9805 
  497200    4131.5764   0.33204945    26.621712  0.018963208         0.05    6.6973125 0.0073755549    88.153114    5413.9621 
  497300    4132.3109   0.33239192    26.627029  0.018963208         0.05    6.7677763 0.0073012134    88.314486    5412.9415 
  497400    4133.0331   0.33263144    26.632291  0.018963208         0.05    6.7927841 0.0072461545    90.420498    5411.8942 
  497500    4133.7617   0.33185693    26.637602  0.018963208         0.05    5.5499786 0.0074530366    90.120857    5410.8506 
  497600    4134.5065   0.33074152    26.642718  0.018963208         0.05    5.8497318 0.0074250614    89.376039    5409.8163 
  497700    4135.2449    0.3320532    26.647904  0.018963208         0.05    5.8722007 0.0073877724    88.617679    5408.7916 
  497800     4135.982   0.33106238    26.653747  0.018963208         0.05    5.9484655 0.0073289876     88.66365    5407.7663 
  497900    4136.7082   0.33143241    26.658435  0.018963208         0.05     5.174515 0.0067691615     88.85761    5406.7385 
  498000    4137.3835   0.33070976    26.662452  0.018963208         0.05     5.236152 0.0067958962     89.45072    5405.7031 
  498100      4138.06   0.33083284    26.666947  0.018963208         0.05     5.301412 0.0067020632    88.329477     5404.682 
  498200     4138.738    0.3314943    26.671319  0.018963208         0.05    5.3648794 0.0075380404    90.750679    5403.6304 
  498300    4139.4945   0.33081299    26.676385  0.018963208         0.05    5.4892073 0.0076025441    90.508809    5402.5817 
  498400    4140.2353   0.33122877    26.682062  0.018963208         0.05     6.438027 0.0073311201    90.550917    5401.5326 
  498500    4140.9716   0.33158121    26.686433  0.018963208         0.05    6.4857068 0.0073440642    90.240898    5400.4872 
  498600    4141.7024   0.33186883    26.691064  0.018963208         0.05    6.5473431  0.007270141    88.471225     5399.464 
  498700    4142.4248   0.33156284    26.695028  0.018963208         0.05    6.7476395 0.0070956113    88.164213    5398.4448 
  498800    4143.2217   0.33092632    26.700058  0.018963208         0.05    5.1044577 0.0078555621    89.525201    5397.4083 
  498900    4143.9901   0.33043454     26.70565  0.018963208         0.05    5.1138176 0.0077128663    89.573553     5396.371 
  499000    4144.7544   0.33256849    26.710228  0.018963208         0.05    5.1939651 0.0072728767     88.90351    5395.3422 
  499100    4145.5305   0.33160806    26.715353  0.018963208         0.05    5.2850827 0.0084926448    89.919633    5394.3006 
  499200    4146.4084   0.33180753    26.720769  0.018963208         0.05    5.3766897 0.0090188677    90.491937     5393.252 
  499300    4147.3057   0.33131604    26.725978  0.018963208         0.05    5.4639826 0.0087933657    88.859568    5392.2236 
  499400    4148.1868   0.33175979    26.732041  0.018963208         0.05    5.5520988 0.0089322565    91.220818     5391.166 
  499500    4149.0738    0.3307666    26.737988  0.018963208         0.05    5.6406543 0.0087948626    88.496687    5390.1422 
  499600    4149.8864   0.33184662    26.742225  0.018963208         0.05     6.001884 0.0078491163    89.399604     5389.107 
  499700    4150.6673   0.33092239    26.747412  0.018963208         0.05    6.0752133 0.0077608638    88.850909    5388.0786 
  499800    4151.4387   0.33130649    26.752367  0.018963208         0.05    6.1720685 0.0076101817    89.130046    5387.0466 
  499900    4152.2017   0.33145535    26.756174  0.018963208         0.05    5.8957109 0.0076491214    90.656743    5385.9958 
  500000    4152.9661   0.32985876    26.760758  0.018963208         0.05    6.0049252 0.0076125272    89.387791    5384.9605 
  500100    4153.7237   0.32991578     26.76454  0.018963208         0.05    6.0848026 0.0075272505     87.99665    5383.9429 
  500200    4154.4742   0.33050551    26.769444  0.018963208         0.05    6.1306933 0.0074749671    90.566833     5382.893 
  500300    4155.2128    0.3315584    26.773965  0.018963208         0.05    6.4442373 0.0072397143    89.002722    5381.8625 
  500400    4155.9355   0.33078313    26.778467  0.018963208         0.05    6.5211421 0.0071948304    88.933161    5380.8328 
  500500    4156.6476   0.33123755    26.782412  0.018963208         0.05    6.5078937 0.0071229475    89.093847    5379.8011 
  500600     4157.356    0.3315518    26.787222  0.018963208         0.05    6.4308644  0.007075192    89.796677    5378.7606 
  500700    4158.0921   0.33198719    26.792393  0.018963208         0.05    5.8993862 0.0076966753    89.946572    5377.7182 
  500800    4158.8592   0.33206385     26.79736  0.018963208         0.05     5.818213   0.00763004    89.040132     5376.687 
  500900    4159.6496   0.33236121    26.801936  0.018963208         0.05    5.8992271 0.0078751433    89.842667    5375.6458 
  501000    4160.4367    0.3328406    26.807128  0.018963208         0.05    5.9690842 0.0077486615    88.985633    5374.6153 
  501100    4161.2211   0.33223093     26.81217  0.018963208         0.05    6.0428801 0.0078403123    88.442813    5373.5915 
  501200    4162.0017   0.33260712    26.816931  0.018963208         0.05    6.1318426  0.007799388    89.110447    5372.5594 
  501300    4162.7858    0.3323991     26.82192  0.018963208         0.05     6.226571 0.0079415545    89.957259    5371.5166 
  501400    4163.5748    0.3310298    26.827355  0.018963208         0.05     6.399342 0.0077335135    89.092484    5370.4846 
  501500    4164.3625   0.33123401    26.832046  0.018963208         0.05    6.0689989 0.0079713892    89.646706    5369.4456 
  501600    4165.1882    0.3316925    26.837065  0.018963208         0.05    5.1923276 0.0083437085    91.424904    5368.3851 
  501700    4166.0165   0.33258285    26.842547  0.018963208         0.05    5.4640364 0.0081754055    88.757124    5367.3572 
  501800    4166.8305   0.33040114    26.847998  0.018963208         0.05    5.6886221 0.0080918876    89.693021    5366.3175 
  501900    4167.6356   0.33056207    26.853295  0.018963208         0.05     5.781324 0.0080020514    88.682509    5365.2905 
  502000    4168.4317   0.33052927    26.858703  0.018963208         0.05     5.860776 0.0078822628    87.484547    5364.2787 
  502100    4169.2182   0.33079444    26.864545  0.018963208         0.05    5.4581057 0.0078334463    88.491197     5363.254 
  502200    4170.0192   0.33118053     26.86973  0.018963208         0.05    5.5557253 0.0084142063    89.129099    5362.2212 
  502300    4170.8565   0.33246203    26.875441  0.018963208         0.05     5.524445 0.0079061317    92.127593    5361.1522 
  502400    4171.6402   0.33011294    26.881243  0.018963208         0.05    5.6346298 0.0078111254    89.346662    5360.1167 
  502500    4172.4189   0.33155618    26.885785  0.018963208         0.05    5.7125114 0.0076518128    88.795362     5359.088 
  502600    4173.2261   0.33143309    26.891087  0.018963208         0.05    5.5059212 0.0085242406    89.818137    5358.0466 
  502700    4174.0402    0.3322139    26.896288  0.018963208         0.05    5.8373687 0.0080391243    89.562631    5357.0083 
  502800    4174.8474   0.33078747    26.901005  0.018963208         0.05    5.9186521 0.0081692043    88.502307    5355.9832 
  502900    4175.6591   0.33170619     26.90562  0.018963208         0.05    6.0375383 0.0080290527    89.147532    5354.9499 
  503000    4176.4621   0.33054353    26.910029  0.018963208         0.05    6.0955901 0.0081210145     89.15875    5353.9165 
  503100    4177.2702   0.33080445    26.914778  0.018963208         0.05    6.1340241 0.0080276041    87.846057    5352.8996 
  503200    4178.0647   0.33082766    26.919646  0.018963208         0.05    5.5983285 0.0081193443    90.017998    5351.8556 
  503300    4178.8811   0.33050627    26.924739  0.018963208         0.05    5.7367621 0.0081393275    89.660848    5350.8159 
  503400    4179.6919   0.33226803     26.92991  0.018963208         0.05    5.7885657 0.0080908119    88.666949    5349.7884 
  503500       4180.5   0.33154217    26.933671  0.018963208         0.05    5.8695989 0.0080478092    89.940034    5348.7453 
  503600    4181.3001   0.33051702    26.938482  0.018963208         0.05    5.9499783 0.0080182998    88.673847    5347.7177 
  503700    4182.1138   0.33158343    26.943682  0.018963208         0.05    6.3021761 0.0078539236    89.491945    5346.6799 
  503800    4182.9386   0.32999296    26.949002  0.018963208         0.05    5.2027335 0.0084951145    90.218848    5345.6332 
  503900     4183.784   0.33121651    26.954263  0.018963208         0.05    5.3504714 0.0084033387     88.77762    5344.6043 
  504000    4184.6192   0.33132088    26.959655  0.018963208         0.05     5.174153 0.0083098247    88.829269    5343.5746 
  504100    4185.4286   0.33063357     26.96481  0.018963208         0.05    5.1701565 0.0077922322    88.930239    5342.5436 
  504200    4186.2051   0.33183291    26.969013  0.018963208         0.05    5.2462415 0.0077315255    88.712952    5341.5154 
  504300    4186.9752   0.33084687    26.973571  0.018963208         0.05    5.3192914  0.007667775     88.66946    5340.4876 
  504400    4187.7382   0.33183586     26.97802  0.018963208         0.05    5.4289103 0.0074673948    88.730368     5339.459 
  504500     4188.553   0.33169721      26.9843  0.018963208         0.05    5.1390106 0.0082073443    89.990051    5338.4149 
  504600    4189.3634   0.33101835    26.989394  0.018963208         0.05     5.219128 0.0080784862    89.557258     5337.376 
  504700     4190.169   0.33122393    26.994265  0.018963208         0.05    5.2996857 0.0080251968    88.504193    5336.3501 
  504800    4190.9643   0.33211433    26.998834  0.018963208         0.05    5.5536076 0.0080192729    89.763469    5335.3087 
  504900    4191.7633   0.33111025    27.004391  0.018963208         0.05    5.0726297 0.0079566482    88.530814    5334.2824 
  505000    4192.5524   0.33217159    27.009687  0.018963208         0.05    5.1124429 0.0081941766    88.306231    5333.2589 
  505100     4193.419   0.33144072    27.015201  0.018963208         0.05    5.2498615 0.0091138515    89.827736    5332.2166 
  505200    4194.3133   0.33046741    27.020852  0.018963208         0.05    5.3508569  0.008862636    90.372435    5331.1677 
  505300    4195.1945   0.33075835    27.026671  0.018963208         0.05    5.5054147 0.0085752483    88.344919    5330.1436 
  505400    4196.0617   0.33168592    27.031632  0.018963208         0.05    5.5703707 0.0087282579    89.724335    5329.1024 
  505500    4196.9283   0.33139948    27.037788  0.018963208         0.05    5.7733463 0.0085195751    90.084565    5328.0568 
  505600    4197.7908    0.3302542    27.042575  0.018963208         0.05    5.7452538 0.0086841458    90.875378    5327.0018 
  505700    4198.6475   0.33172991    27.048109  0.018963208         0.05    5.8298936 0.0085458413    90.416736    5325.9522 
  505800     4199.491   0.33154121    27.053213  0.018963208         0.05     5.914846 0.0084503383    89.091538    5324.9187 
  505900    4200.3214    0.3301886    27.057729  0.018963208         0.05    6.0686979 0.0077968928    90.105601    5323.8728 
  506000    4201.1346   0.33064855    27.061973  0.018963208         0.05     6.141716 0.0081220553    87.943328    5322.8535 
  506100    4201.9272   0.33086431    27.066995  0.018963208         0.05    5.7920884 0.0074031098    89.425679    5321.8157 
  506200    4202.6644   0.33126742    27.070721  0.018963208         0.05    5.8661768  0.007331696    89.001381    5320.7832 
  506300    4203.3884   0.33007057    27.074901  0.018963208         0.05    6.2825866 0.0071847887    90.373428    5319.7339 
  506400    4204.1047   0.33189213    27.078639  0.018963208         0.05    6.3431758 0.0071276219    88.831395    5318.7034 
  506500    4204.8233   0.33180132     27.08324  0.018963208         0.05    5.5157371 0.0076680338     89.58199    5317.6636 
  506600    4205.5772   0.33069188    27.087447  0.018963208         0.05     5.704056 0.0074793605    88.150224    5316.6415 
  506700    4206.3154   0.33011256    27.092225  0.018963208         0.05    5.9641162 0.0073261654    89.363033    5315.6043 
  506800    4207.0457   0.33120613     27.09618  0.018963208         0.05    6.0725709 0.0071969028    88.739792    5314.5748 
  506900    4207.7569   0.32961415    27.100605  0.018963208         0.05    6.2731142 0.0072000852    90.055784    5313.5292 
  507000    4208.4733    0.3316362    27.104616  0.018963208         0.05    6.2524934 0.0072828816    88.015226    5312.5086 
  507100    4209.3062   0.33135023    27.108847  0.018963208         0.05    5.9434402 0.0083908629    89.500672    5311.4696 
  507200    4210.1337    0.3296833    27.113552  0.018963208         0.05    6.1008057 0.0081797906    88.830699    5310.4388 
  507300    4210.9833   0.33006984    27.117512  0.018963208         0.05    5.2802678  0.009008965    90.437909    5309.3885 
  507400     4211.877   0.32909371    27.123259  0.018963208         0.05    5.2146931  0.008778058    89.387944    5308.3508 
  507500    4212.7706   0.33005526     27.12809  0.018963208         0.05    5.2698431 0.0089151579    89.569153    5307.3108 
  507600    4213.6389   0.32998556    27.133745  0.018963208         0.05    5.5159949 0.0084462815    89.406007    5306.2729 
  507700    4214.4979   0.33117431    27.139495  0.018963208         0.05    5.4107983 0.0090980002    89.960906    5305.2282 
  507800    4215.4022   0.33056291    27.144866  0.018963208         0.05    5.5699324 0.0089075247    89.841839    5304.1848 
  507900    4216.2976   0.33188324    27.150699  0.018963208         0.05    5.4083802  0.008916071    89.227962    5303.1489 
  508000    4217.1842   0.33101542    27.156089  0.018963208         0.05    5.4962196 0.0088463229    89.982271    5302.1039 
  508100    4218.0527   0.33073839    27.161901  0.018963208         0.05    5.6037133 0.0085915779    89.470335     5301.065 
  508200    4218.9301   0.33118573    27.166795  0.018963208         0.05    5.2663236 0.0093085833    89.711765    5300.0231 
  508300    4219.8539   0.33086848    27.171721  0.018963208         0.05     5.161448  0.009141396    89.369088    5298.9854 
  508400    4220.7615   0.33133709    27.176528  0.018963208         0.05    5.2713812 0.0089919968    89.809098    5297.9423 
  508500    4221.6357   0.33054921    27.181656  0.018963208         0.05    5.4885429 0.0081747398    89.069724    5296.9081 
  508600    4222.4678   0.33095134     27.18608  0.018963208         0.05    5.3832064 0.0083948204    92.256026    5295.8364 
  508700     4223.297   0.32944555    27.191303  0.018963208         0.05    4.9573076 0.0082815084    89.144349    5294.8013 
  508800    4224.1266   0.32946968    27.195585  0.018963208         0.05    5.0931692 0.0087598488    89.518953    5293.7616 
  508900    4225.0042    0.3303752    27.200108  0.018963208         0.05    5.1855351   0.00934197     90.72624    5292.7075 
  509000      4225.94   0.33022945    27.205901  0.018963208         0.05    5.2391064 0.0089687283    89.584534     5291.667 
  509100    4226.8485   0.33081967    27.211358  0.018963208         0.05    4.9762165 0.0091747478    89.951356     5290.622 
  509200    4227.7572   0.33033623    27.217495  0.018963208         0.05    4.9698372 0.0089315893    90.256045    52