#package gpu 1
#suffix gpu
# variable rho equal 0.03

units lj
atom_style atomic

lattice fcc 0.975
Lattice spacing in x,y,z = 1.60085 1.60085 1.60085
region box block 0 60 0 30 0 30
create_box 2 box
Created orthogonal box = (0 0 0) to (96.0513 48.0256 48.0256)
  1 by 1 by 1 MPI processor grid
create_atoms 1 box
Created 216000 atoms
  Time spent = 0.0393331 secs
mass 1 4.0
mass 2 0.5


pair_style lj/cut 2.5
pair_coeff 1 1 1.0 1.0 2.5
pair_coeff 2 2 0.5 0.88 2.5
pair_coeff 1 2 0.2 1.0 2.5
#pair_coeff 1 2 1.5 0.8 2.5
pair_modify mix geometric
neigh_modify every 1 delay 0 check yes

variable R equal 12
region cylinder1 cylinder x $(0.5*ly) $(0.5*lz) $R EDGE EDGE units box
region cylinder1 cylinder x 24.012813670346833561 $(0.5*lz) $R EDGE EDGE units box
region cylinder1 cylinder x 24.012813670346833561 24.012813670346833561 $R EDGE EDGE units box
region cylinder1 cylinder x 24.012813670346833561 24.012813670346833561 12 EDGE EDGE units box

group cylinder1 region cylinder1
41820 atoms in group cylinder1
variable V equal PI*v_R*v_R*lx
# variable rho equal 0.1
variable natoms equal $V*${rho}
variable natoms equal 43452.5639148185*${rho}
variable natoms equal 43452.5639148185*0.50
variable natoms_in_cylinder equal count(cylinder1)
variable delete_fraction equal (${natoms_in_cylinder}-${natoms})/${natoms_in_cylinder}
variable delete_fraction equal (41820-${natoms})/${natoms_in_cylinder}
variable delete_fraction equal (41820-21726.2819574093)/${natoms_in_cylinder}
variable delete_fraction equal (41820-21726.2819574093)/41820
set group cylinder1 type 2
  41820 settings made for type
delete_atoms porosity cylinder1 ${delete_fraction} 12345
delete_atoms porosity cylinder1 0.480481062711399 12345
Deleted 20189 atoms, new total = 195811
#delete_atoms region cylinder1

region cylinder2 cylinder x $(0.5*ly) $(0.5*lz) $(v_R+6) EDGE EDGE units box
region cylinder2 cylinder x 24.012813670346833561 $(0.5*lz) $(v_R+6) EDGE EDGE units box
region cylinder2 cylinder x 24.012813670346833561 24.012813670346833561 $(v_R+6) EDGE EDGE units box
region cylinder2 cylinder x 24.012813670346833561 24.012813670346833561 18 EDGE EDGE units box
region cylinder3 cylinder x $(0.5*ly) $(0.5*lz) $(v_R+11) EDGE EDGE units box
region cylinder3 cylinder x 24.012813670346833561 $(0.5*lz) $(v_R+11) EDGE EDGE units box
region cylinder3 cylinder x 24.012813670346833561 24.012813670346833561 $(v_R+11) EDGE EDGE units box
region cylinder3 cylinder x 24.012813670346833561 24.012813670346833561 23 EDGE EDGE units box
group cylinder2 region cylinder2
75631 atoms in group cylinder2
group cylinder3 region cylinder3
135391 atoms in group cylinder3

group nve region cylinder3
135391 atoms in group nve
group langevin subtract cylinder3 cylinder2
59760 atoms in group langevin
group frozen subtract all cylinder3
60420 atoms in group frozen

region force cylinder x $(0.5*ly) $(0.5*lz) $(v_R-1) EDGE EDGE units box
region force cylinder x 24.012813670346833561 $(0.5*lz) $(v_R-1) EDGE EDGE units box
region force cylinder x 24.012813670346833561 24.012813670346833561 $(v_R-1) EDGE EDGE units box
region force cylinder x 24.012813670346833561 24.012813670346833561 11 EDGE EDGE units box
group inner dynamic all region cylinder1 every 1
dynamic group inner defined
#group gas dynamic all region force every 1
group gas type 2
21631 atoms in group gas

fix nve nve nve
fix langevin langevin langevin 0.50 0.50 1.0 12345 zero yes

variable gascount equal count(gas)

variable dP equal 0.001
variable measured_rho equal mass(gas)/(PI*(v_R-1)*(v_R-1)*lx)
variable force equal v_dP/v_measured_rho
variable force equal v_dP/v_rho

velocity all create 0.1 87287
velocity frozen set 0 0 0

compute chunk all chunk/atom bin/cylinder x lower $(lx) $(0.5*ly) $(0.5*lz) 0 $(v_R+5) 30 units box
compute chunk all chunk/atom bin/cylinder x lower 96.051254681387334244 $(0.5*ly) $(0.5*lz) 0 $(v_R+5) 30 units box
compute chunk all chunk/atom bin/cylinder x lower 96.051254681387334244 24.012813670346833561 $(0.5*lz) 0 $(v_R+5) 30 units box
compute chunk all chunk/atom bin/cylinder x lower 96.051254681387334244 24.012813670346833561 24.012813670346833561 0 $(v_R+5) 30 units box
compute chunk all chunk/atom bin/cylinder x lower 96.051254681387334244 24.012813670346833561 24.012813670346833561 0 17 30 units box

compute displacement nve displace/atom
compute mean_displacement nve reduce ave c_displacement[4]

compute vmax all reduce max vx
variable volume equal count(gas)/v_V

thermo_style custom step time temp c_mean_displacement v_volume v_force c_vmax dt spcpu cpuremain
thermo 100

compute keAtom all ke/atom
dump dump all custom 1000 trajectory.bin id type x y z c_keAtom

fix flow gas addforce v_force 0.0 0.0
run 5000
No /omp style for force computation currently active
Per MPI rank memory allocation (min/avg/max) = 96.31 | 96.31 | 96.31 Mbytes
Step Time Temp c_mean_displacement v_volume v_force c_vmax Dt S/CPU CPULeft 
       0            0  0.069187705            0   0.49780722        0.002   0.77501128        0.005            0            0 
     100          0.5   0.10693634  0.094038691   0.49780722        0.002    2.4464494        0.005    92.336698    53.066705 
     200            1   0.15481487   0.15662573   0.49780722        0.002    3.0766208        0.005    90.776979    52.430277 
     300          1.5   0.18012915   0.21617314   0.49780722        0.002    3.0803174        0.005    91.078079    51.426678 
     400            2   0.19885939   0.26680245   0.49780722        0.002    2.9835169        0.005    89.118134     50.65359 
     500          2.5   0.21230948   0.30889623   0.49780722        0.002    3.2265042        0.005    89.396593    49.709438 
     600            3   0.22085101   0.34300545   0.49780722        0.002    3.1241745        0.005    88.966777    48.746764 
     700          3.5    0.2270435   0.36905694   0.49780722        0.002    3.5447207        0.005    89.266835    47.714784 
     800            4   0.23322153   0.38777524   0.49780722        0.002    3.5647751        0.005    94.535292    46.332976 
     900          4.5   0.24001863   0.40056222   0.49780722        0.002    3.5266897        0.005    96.766918    44.912037 
    1000            5   0.24567382   0.40944691   0.49780722        0.002    4.0957356        0.005    93.336514    43.720528 
    1100          5.5    0.2506325   0.41644014   0.49780722        0.002    3.3138299        0.005    94.441462    42.506415 
    1200            6   0.25475928   0.42370832   0.49780722        0.002    3.4416041        0.005    95.748298    41.272414 
    1300          6.5   0.25866358   0.43245336   0.49780722        0.002    3.8762277        0.005    94.387607    40.110433 
    1400            7   0.26204707   0.44432352   0.49780722        0.002    4.1820996        0.005    95.226229    38.939106 
    1500          7.5   0.26517924   0.45806771   0.49780722        0.002     3.541659        0.005    95.494746    37.777049 
    1600            8   0.26830579   0.47263831   0.49780722        0.002    3.4011527        0.005    94.923135    36.642752 
    1700          8.5   0.27112597   0.48848338   0.49780722        0.002    3.7073867        0.005    94.429066    35.528662 
    1800            9   0.27559499   0.50327666   0.49780722        0.002    3.2747238        0.005    96.075396    34.388432 
    1900          9.5   0.27839612   0.51710671   0.49780722        0.002    3.4853178        0.005    93.349082    33.308262 
    2000           10   0.28251312   0.53037397   0.49780722        0.002    3.4520424        0.005    94.993456    32.201167 
    2100         10.5    0.2848813   0.54316308   0.49780722        0.002    3.6034615        0.005    93.378531    31.124395 
    2200           11   0.28787512    0.5569606   0.49780722        0.002    3.7458073        0.005    94.620085    30.030271 
    2300         11.5   0.29079119   0.57117581   0.49780722        0.002     3.306249        0.005    95.129384    28.932746 
    2400           12   0.29287305   0.58647343   0.49780722        0.002     3.371189        0.005    94.625016     27.84515 
    2500         12.5   0.29527518   0.60148073   0.49780722        0.002    3.5883182        0.005    96.005684    26.744821 
    2600           13   0.29709482   0.61573493   0.49780722        0.002    3.0713143        0.005    93.363087    25.676223 
    2700         13.5    0.2993264   0.62891906   0.49780722        0.002    3.6901961        0.005    95.081617    24.590949 
    2800           14    0.3000832   0.64125834   0.49780722        0.002    3.6205626        0.005     95.07638    23.508117 
    2900         14.5   0.30118341   0.65142865   0.49780722        0.002    3.8269138        0.005    95.666403    22.422729 
    3000           15   0.30325855   0.66081086   0.49780722        0.002    3.7913881        0.005    93.214109    21.358347 
    3100         15.5   0.30408867   0.67019509   0.49780722        0.002    4.0492575        0.005    94.655212    20.283411 
    3200           16   0.30535517   0.67865571   0.49780722        0.002    3.8467064        0.005    95.887011    19.201994 
    3300         16.5   0.30683816   0.68740731   0.49780722        0.002    3.3816345        0.005     94.07568    18.133258 
    3400           17   0.30689504   0.69564989   0.49780722        0.002    3.3892288        0.005    94.190777    17.064249 
    3500         17.5   0.30892694   0.70351536   0.49780722        0.002    4.2257045        0.005    94.445035    15.994434 
    3600           18   0.31026926   0.71262074   0.49780722        0.002    3.5722169        0.005    94.524213    14.924885 
    3700         18.5   0.31115146   0.72128493   0.49780722        0.002     3.821323        0.005    94.164175    13.857385 
    3800           19   0.31166329   0.72990105   0.49780722        0.002    3.5065211        0.005    94.276034    12.789779 
    3900         19.5   0.31280479   0.73845518   0.49780722        0.002    3.4769434        0.005    94.101705    11.723079 
    4000           20   0.31406862   0.74703477   0.49780722        0.002    3.4550037        0.005    94.024455    10.656799 
    4100         20.5   0.31583528   0.75546414   0.49780722        0.002    3.8024957        0.005    94.148048    9.5903464 
    4200           21   0.31724437    0.7646205   0.49780722        0.002    4.1325482        0.005    95.005183    8.5222724 
    4300         21.5   0.31771641   0.77375197   0.49780722        0.002    3.4238663        0.005    94.568031    7.4557112 
    4400           22   0.31820047   0.78280701   0.49780722        0.002    4.1242368        0.005    93.441252    6.3913038 
    4500         22.5   0.31902897   0.79271694   0.49780722        0.002    3.6905269        0.005    93.923791    5.3260282 
    4600           23   0.31985782    0.8021864   0.49780722        0.002     4.505681        0.005    94.885662    4.2598395 
    4700         23.5   0.32065818   0.81141649   0.49780722        0.002    4.1073869        0.005    95.259968    3.1939093 
    4800           24    0.3203835   0.82036627   0.49780722        0.002    3.2560411        0.005    95.477051    2.1285535 
    4900         24.5   0.32040686   0.82896295   0.49780722        0.002    3.5350611        0.005    95.350879    1.0639601 
    5000           25   0.32166475   0.83660111   0.49780722        0.002    3.5923074        0.005    93.078514            0 
Loop time of 53.2084 on 4 procs for 5000 steps with 195811 atoms

Performance: 40595.074 tau/day, 93.970 timesteps/s
222.0% CPU use with 1 MPI tasks x 4 OpenMP threads

MPI task timing breakdown:
Section |  min time  |  avg time  |  max time  |%varavg| %total
---------------------------------------------------------------
Pair    | 18.488     | 18.488     | 18.488     |   0.0 | 34.75
Neigh   | 0.44493    | 0.44493    | 0.44493    |   0.0 |  0.84
Comm    | 5.0575     | 5.0575     | 5.0575     |   0.0 |  9.51
Output  | 0.17982    | 0.17982    | 0.17982    |   0.0 |  0.34
Modify  | 25.367     | 25.367     | 25.367     |   0.0 | 47.67
Other   |            | 3.671      |            |       |  6.90

Nlocal:    195811 ave 195811 max 195811 min
Histogram: 1 0 0 0 0 0 0 0 0 0
Nghost:    68285 ave 68285 max 68285 min
Histogram: 1 0 0 0 0 0 0 0 0 0
Neighs:    0 ave 0 max 0 min
Histogram: 1 0 0 0 0 0 0 0 0 0

Total # of neighbors = 0
Ave neighs/atom = 0
Neighbor list builds = 658
Dangerous builds = 0

reset_timestep 0
fix vx all ave/chunk 10 10000 100000 chunk vx ave running file velocity.txt

fix dt all dt/reset 10 NULL NULL 0.05 units box

run 100000
No /omp style for force computation currently active
Per MPI rank memory allocation (min/avg/max) = 107 | 107 | 107 Mbytes
Step Time Temp c_mean_displacement v_volume v_force c_vmax Dt S/CPU CPULeft 
       0           25   0.32166475   0.83660111   0.49780722        0.002    3.5923074   0.01086923            0            0 
     100    26.065444   0.32305354   0.85337486   0.49780722        0.002    3.7338457  0.011764439    82.522349    1210.5821 
     200    27.189882   0.32400651   0.87148198   0.49780722        0.002    3.7072507  0.011937004    81.636377    1215.9323 
     300    28.321576    0.3252459    0.8900634   0.49780722        0.002    3.9946776  0.011634707    82.808542    1211.1366 
     400    29.441351   0.32588761   0.90867785   0.49780722        0.002    3.5378062  0.011043582    82.590288    1208.9294 
     500    30.568479   0.32627276   0.92732725   0.49780722        0.002    3.8590716  0.011560435    82.626538    1207.0154 
     600    31.678448    0.3269963   0.94513449   0.49780722        0.002    3.6751701  0.011128306     82.09527    1206.6333 
     700    32.782135   0.32978804   0.96247293   0.49780722        0.002    3.7758106   0.01179328    82.616772    1204.9216 
     800    33.910753   0.32989389   0.98019646   0.49780722        0.002    3.6960572  0.010119804     82.61936    1203.3306 
     900    35.026899   0.33044997   0.99717981   0.49780722        0.002    3.5638997 0.0096828417    81.979307    1202.8647 
    1000    36.111156   0.33062173    1.0139355   0.49780722        0.002    3.2835195  0.011450184    80.669621    1204.2085 
    1100    37.215761    0.3320607    1.0297788   0.49780722        0.002    3.6412368  0.010501115    84.026488    1200.6302 
    1200    38.283538   0.33173011    1.0464777   0.49780722        0.002     3.689715  0.011077651     83.51469    1198.0503 
    1300    39.397641   0.33149723    1.0635476   0.49780722        0.002    3.7602729  0.011757865     83.97279    1195.1871 
    1400    40.478566   0.33264495    1.0811596   0.49780722        0.002     4.277592  0.010520279    83.554402    1192.9829 
    1500    41.559757   0.33202385    1.0984041   0.49780722        0.002    3.7264436  0.011603386    83.832628    1190.6521 
    1600    42.653666   0.33484761    1.1154891   0.49780722        0.002    3.7463942  0.011439801    82.796544    1189.3816 
    1700    43.761726   0.33471058    1.1325112   0.49780722        0.002    3.7529513  0.011049253    83.348681    1187.6558 
    1800    44.857206   0.33382226    1.1490775   0.49780722        0.002    3.8927132  0.011210826     82.91221     1186.333 
    1900    45.953226   0.33362324    1.1659771   0.49780722        0.002     3.668761  0.009596034    82.107998    1185.6324 
    2000     47.01549   0.33584743    1.1824585   0.49780722        0.002    4.0371952  0.010549989    82.411167    1184.6607 
    2100     48.07682   0.33497214    1.1989918   0.49780722        0.002    3.5613324  0.010757946    81.054349    1184.6127 
    2200    49.144645   0.33548741    1.2147823   0.49780722        0.002     3.756803    0.0115066    83.015858    1183.1612 
    2300     50.26499   0.33530216    1.2320881   0.49780722        0.002    3.5198346  0.011201123    82.123464    1182.2871 
    2400     51.36172   0.33706191    1.2486816   0.49780722        0.002    3.7678649  0.011419112    82.486061    1181.1667 
    2500    52.421804   0.33746029    1.2644962   0.49780722        0.002    3.8423264  0.010461736    81.929329    1180.3602 
    2600    53.473888   0.33649471    1.2797425   0.49780722        0.002    3.7319476  0.010001611    82.217106    1179.3618 
    2700    54.558961   0.33679402    1.2952677   0.49780722        0.002    4.2708251  0.009882414    82.853886    1178.0104 
    2800    55.609129   0.33641746    1.3125789   0.49780722        0.002    4.2093126   0.01121671    83.276909    1176.4565 
    2900    56.669907   0.33659676    1.3291869   0.49780722        0.002    3.8648153 0.0090387787    84.373658    1174.4044 
    3000    57.741917   0.33600025    1.3452717   0.49780722        0.002    3.9129484  0.011739707    81.417248    1173.8015 
    3100    58.855741   0.33544914    1.3628325   0.49780722        0.002    3.7133042  0.011147583    83.331459    1172.2764 
    3200    59.962823   0.33794956    1.3793274   0.49780722        0.002    3.8420014  0.010952751    81.864006    1171.4223 
    3300    61.057142   0.33815357    1.3974259   0.49780722        0.002    3.5162459  0.011568667    82.832402    1170.1275 
    3400    62.137708   0.33763289    1.4152353   0.49780722        0.002    4.1201823  0.011546909    83.539475    1168.5475 
    3500    63.223262   0.33835208    1.4327497   0.49780722        0.002    3.6696143  0.010960974    82.780154    1167.2921 
    3600    64.290282   0.33870524    1.4490793   0.49780722        0.002    3.6569381  0.011457305    82.864935    1166.0063 
    3700    65.359641   0.33733584     1.466624   0.49780722        0.002    3.9786436  0.010886888    82.356651    1164.9186 
    3800    66.440656   0.33846493    1.4846108   0.49780722        0.002    3.6788059  0.010376123    83.511082    1163.3993 
    3900    67.489959   0.33833934    1.5016894   0.49780722        0.002    3.6708802 0.0098879041    83.195359    1162.0084 
    4000    68.540656   0.33832286    1.5189708   0.49780722        0.002    3.9859804 0.0092735121    82.459336    1160.8845 
    4100    69.602093   0.33991468    1.5364113   0.49780722        0.002     4.029344  0.010675676     81.73955    1160.0061 
    4200    70.653478   0.33835626    1.5531073   0.49780722        0.002    3.7609473  0.010836067     83.40631    1158.5536 
    4300    71.700502   0.33906944    1.5693922   0.49780722        0.002    3.6417685  0.010911507    82.921701    1157.2688 
    4400    72.767275   0.33910017    1.5876331   0.49780722        0.002    3.6053849  0.011278015    80.833749    1156.6644 
    4500    73.830756   0.33887712    1.6052572   0.49780722        0.002    4.0803175  0.009990657    82.732426    1155.4294 
    4600    74.878275   0.33918143    1.6234236   0.49780722        0.002    4.1422766  0.010293582    80.398767    1154.9231 
    4700    75.920495   0.33936188    1.6411055   0.49780722        0.002    3.7976097  0.010724793    79.726963     1154.598 
    4800    76.988375   0.33910108    1.6592165   0.49780722        0.002    3.8790736  0.011056917    79.609399    1154.2709 
    4900    78.090604   0.33874399    1.6770417   0.49780722        0.002    3.8685689  0.011406544    79.682933    1153.8833 
    5000    79.171783   0.33861211    1.6951723   0.49780722        0.002    3.7157646 0.0095359212    78.104067    1153.9431 
    5100    80.243346   0.33867829    1.7133661   0.49780722        0.002    4.2862366  0.011202267    80.671824     1153.192 
    5200     81.29312   0.33833228    1.7315142   0.49780722        0.002    3.9485061  0.010667047     79.68858     1152.701 
    5300    82.366906   0.33957093    1.7496563   0.49780722        0.002    3.7945817  0.011540767    80.145742    1152.0532 
    5400    83.467932   0.33922467     1.769357   0.49780722        0.002    3.9133303  0.010775594    79.277684    1151.6225 
    5500    84.533471   0.34041476    1.7881185   0.49780722        0.002    4.1726433  0.010947044    78.671025    1151.3288 
    5600    85.602178   0.33892501    1.8058714   0.49780722        0.002    3.9623971   0.01077218    82.349666     1150.043 
    5700    86.662282   0.33934664    1.8244289   0.49780722        0.002    3.7192823  0.010890918    83.254247    1148.5414 
    5800    87.748152   0.33964707    1.8435461   0.49780722        0.002    4.5831375 0.0095740294    81.507765    1147.4682 
    5900    88.808079   0.33993561    1.8622313   0.49780722        0.002    3.7223457 0.0091527958    82.014605    1146.2688 
    6000    89.841123   0.33943309    1.8805681   0.49780722        0.002    3.8842529  0.011587311    81.831584    1145.1115 
    6100    90.912965   0.34105535    1.8972211   0.49780722        0.002    4.0075399  0.010364862    79.469077    1144.5113 
    6200    91.960252   0.34039934    1.9141006   0.49780722        0.002    4.3118487   0.01001869    83.948336    1142.8741 
    6300    92.979572   0.34003051    1.9320621   0.49780722        0.002    4.1020689  0.011023839    82.552445    1141.5506 
    6400    94.059645   0.34122341     1.951767   0.49780722        0.002    3.9678558  0.010974449    83.852254     1139.956 
    6500     95.12785   0.34098905    1.9714641   0.49780722        0.002    4.2120398  0.010894202     83.77307      1138.39 
    6600     96.18933   0.34117106    1.9913331   0.49780722        0.002    3.8884611  0.010198324    83.223191    1136.9468 
    6700    97.268296   0.34044728    2.0121392   0.49780722        0.002    3.9097911  0.010873428    81.829923    1135.7958 
    6800    98.341196   0.34162208     2.031941   0.49780722        0.002    4.2876089  0.010764532    83.092974    1134.3881 
    6900     99.39155   0.34201983    2.0523771   0.49780722        0.002    3.7489952 0.0093996187    82.147607    1133.1732 
    7000    100.42972   0.34050697    2.0729353   0.49780722        0.002    3.7773955   0.01066826    83.014346    1131.7894 
    7100    101.50073    0.3409208    2.0946835   0.49780722        0.002    3.8275495  0.010858792    81.373463    1130.7284 
    7200    102.55168   0.34099271    2.1143645   0.49780722        0.002    3.5608407  0.010625545    83.102506    1129.3332 
    7300     103.6366   0.34119742    2.1351554   0.49780722        0.002    3.9204787  0.010968436     84.15433    1127.7523 
    7400    104.71802   0.34090373    2.1562871   0.49780722        0.002    3.6373916  0.010995323    83.547213    1126.2901 
    7500    105.79809   0.34008472    2.1778509   0.49780722        0.002    3.8334539  0.010703756    83.113787    1124.9119 
    7600    106.85648   0.34153763    2.1982749   0.49780722        0.002    3.7712233  0.010623092    84.034384    1123.3781 
    7700    107.87678   0.34137532    2.2192889   0.49780722        0.002    3.7195525  0.011148234    81.020076    1122.3839 
    7800    108.96577    0.3411704    2.2415027   0.49780722        0.002    4.3040144  0.010238952    83.294671    1120.9851 
    7900    110.00063   0.34174698    2.2628224   0.49780722        0.002    3.8369891 0.0095680621    82.917701     1119.655 
    8000    110.99661   0.34315944    2.2821563   0.49780722        0.002     4.097277 0.0098546873    80.491326    1118.7461 
    8100    112.01174   0.34237213    2.3025819   0.49780722        0.002    4.7157309  0.010093917    80.276403    1117.8666 
    8200    113.06488   0.34239594    2.3232567   0.49780722        0.002    3.9222137  0.011453352    83.469052    1116.4449 
    8300    114.11422    0.3406924    2.3442566   0.49780722        0.002    4.1962441  0.010635598    82.938606    1115.1131 
    8400    115.13582   0.34152154    2.3638462   0.49780722        0.002    3.9829965 0.0090016705    83.000564    1113.7746 
    8500    116.15672   0.34179281    2.3837824   0.49780722        0.002    3.5989199 0.0097900022    83.880091    1112.3032 
    8600    117.17125    0.3422502    2.4048759   0.49780722        0.002    3.9011866  0.011498644    83.424691    1110.9075 
    8700    118.24477   0.34244196    2.4270056   0.49780722        0.002    4.0927586  0.010980892    82.141461    1109.7128 
    8800    119.28907   0.34198096    2.4484595   0.49780722        0.002    4.2294845  0.010503729    83.957209    1108.2447 
    8900     120.3155    0.3424459    2.4698891   0.49780722        0.002    4.3769431  0.010496994    82.564649    1106.9885 
    9000    121.33029    0.3423435    2.4904269   0.49780722        0.002    4.6179188  0.010355827    81.719038      1105.86 
    9100    122.34534   0.34200097     2.512292   0.49780722        0.002    4.3698636  0.010162381    81.849676    1104.7099 
    9200    123.36849   0.34164288    2.5341766   0.49780722        0.002    4.3616164  0.010196547    83.209223    1103.3612 
    9300    124.38343   0.34209576    2.5553479   0.49780722        0.002     4.134966 0.0095312496    81.750703    1102.2248 
    9400    125.36062   0.34344323    2.5771901   0.49780722        0.002    3.8131228    0.0110882    83.500408    1100.8396 
    9500    126.42926   0.34334432    2.6012447   0.49780722        0.002    4.0266767 0.0097401415    83.052959    1099.5197 
    9600     127.4594   0.34237295    2.6245788   0.49780722        0.002    4.0280181  0.010335839    83.716404    1098.1123 
    9700    128.46233    0.3418896    2.6476254   0.49780722        0.002    4.0486184  0.010417998    83.636792      1096.72 
    9800    129.51619    0.3437887    2.6712748   0.49780722        0.002    3.9488285  0.010131833    82.770222    1095.4469 
    9900     130.5447   0.34225526    2.6943026   0.49780722        0.002    4.9030406 0.0099873625    83.976657    1094.0171 
   10000    131.59547   0.34251691    2.7173208   0.49780722        0.002    4.0693182  0.010521376    81.673257    1092.8944 
   10100    132.69527   0.34233435    2.7427825   0.49780722        0.002    3.8950561  0.010765047    82.863364    1091.6131 
   10200    133.75311   0.34338424    2.7664126   0.49780722        0.002    4.2522754 0.0095985086    83.018142    1090.3135 
   10300    134.77338   0.34280663    2.7893197   0.49780722        0.002    5.0794892 0.0096774997    83.623502    1088.9398 
   10400    135.82699   0.34214718    2.8137645   0.49780722        0.002    4.4416046  0.010173324    84.849959    1087.4206 
   10500    136.90477   0.34147331    2.8379075   0.49780722        0.002    3.8395874  0.011106744    84.622055    1085.9349 
   10600    137.97527   0.34234254    2.8634391   0.49780722        0.002    3.8372417  0.010828411    84.234863    1084.5008 
   10700    139.02826   0.34197493    2.8880527   0.49780722        0.002    4.3523672  0.010437949     83.87474    1083.1138 
   10800    140.07591   0.34199102    2.9125937   0.49780722        0.002    3.9594733  0.010435288    83.780868    1081.7415 
   10900    141.14317   0.34134717    2.9375824   0.49780722        0.002    4.1453473  0.011127544    83.996687    1080.3474 
   11000    142.21478   0.34198323    2.9617552   0.49780722        0.002     3.860358  0.011066926    83.109011    1079.0598 
   11100    143.27729   0.34169674    2.9866043   0.49780722        0.002    3.8774984  0.010955732    82.985488    1077.7882 
   11200    144.35401   0.34175562    3.0116439   0.49780722        0.002     3.941968  0.010994721    84.757403     1076.318 
   11300    145.38296   0.34200802    3.0371333   0.49780722        0.002    4.3042486  0.010382424    84.080322    1074.9275 
   11400    146.39574     0.342576    3.0623322   0.49780722        0.002     3.759265  0.010193944     82.64176    1073.7014 
   11500    147.39374   0.34260056    3.0873514   0.49780722        0.002    3.8526002  0.010442813    84.755159    1072.2434 
   11600    148.44739   0.34266104    3.1133246   0.49780722        0.002    4.2445954  0.010687704    84.032347    1070.8675 
   11700    149.46397   0.34192102    3.1387442   0.49780722        0.002    3.8752234 0.0091245336    84.314397    1069.4648 
   11800    150.47105   0.34270309    3.1629971   0.49780722        0.002    4.3657819  0.010999964    84.093117    1068.0891 
   11900    151.53513   0.34299781    3.1892107   0.49780722        0.002    3.5928591  0.010613986    83.782207    1066.7492 
   12000    152.60578   0.34218272    3.2157144   0.49780722        0.002    4.4927828  0.008508398    83.299998    1065.4624 
   12100    153.55456   0.34205327    3.2390741   0.49780722        0.002    4.1362677  0.011088297    82.862545    1064.2231 
   12200    154.61488   0.34301187    3.2658088   0.49780722        0.002    3.7873203  0.010434981    82.904917    1062.9798 
   12300    155.68521    0.3436447    3.2929227   0.49780722        0.002    4.1929927 0.0099397764    83.116191    1061.7153 
   12400    156.74477   0.34232764    3.3191521   0.49780722        0.002    4.0200069  0.010457567    82.956995    1060.4681 
   12500    157.78817   0.34366941    3.3450233   0.49780722        0.002    4.1432254  0.010878487    83.179718     1059.199 
   12600    158.83998   0.34307412     3.371183   0.49780722        0.002    3.8492545  0.010892051    82.979299    1057.9511 
   12700     159.8556   0.34276468     3.396732   0.49780722        0.002    3.8309991 0.0097376677    83.463255    1056.6558 
   12800    160.89676   0.34319541    3.4232554   0.49780722        0.002    4.2657467 0.0092330639    83.274694    1055.3805 
   12900    161.93011   0.34261493     3.449384   0.49780722        0.002    3.9305192   0.01071978    82.646873     1054.168 
   13000    162.97648   0.34226027    3.4749067   0.49780722        0.002      3.90427  0.010359218    81.785087    1053.0408 
   13100    164.03042   0.34250138    3.5011263   0.49780722        0.002    3.6999598  0.010715143     82.06716    1051.8843 
   13200    165.11284   0.34346552    3.5278271   0.49780722        0.002    3.8412324  0.010067197    83.506759    1050.5887 
   13300    166.17354   0.34330557     3.554761   0.49780722        0.002    3.9890163  0.010724718    82.501572    1049.3897 
   13400    167.21456   0.34194438    3.5803511   0.49780722        0.002    4.0587777   0.01093536    83.336956     1048.112 
   13500    168.28137   0.34234388    3.6073533   0.49780722        0.002    4.3423114  0.011115111    80.355747    1047.1207 
   13600    169.32184   0.34195266     3.633234   0.49780722        0.002    3.8687554  0.010550331    81.232255    1046.0403 
   13700    170.36267   0.34362689      3.65806   0.49780722        0.002    4.3895973  0.010714798    83.378505    1044.7582 
   13800     171.4143    0.3433695     3.684677   0.49780722        0.002    4.0996376  0.010382316    83.032966    1043.5084 
   13900    172.47487   0.34321099    3.7109875   0.49780722        0.002    3.8346715  0.010496828    83.581426    1042.2103 
   14000    173.50863   0.34404166    3.7355431   0.49780722        0.002    3.8189695   0.01131167    83.234355    1040.9443 
   14100     174.5416   0.34303002    3.7613774   0.49780722        0.002    3.9232728 0.0083510019    81.448015    1039.8398 
   14200    175.54789   0.34383787     3.785493   0.49780722        0.002    3.9656192  0.010096324    82.690279     1038.622 
   14300    176.60114   0.34404142    3.8107042   0.49780722        0.002     3.907644  0.010504098    81.908402    1037.4736 
   14400    177.61722   0.34379086     3.835322   0.49780722        0.002    3.8424244 0.0094847007    82.112998    1036.3061 
   14500    178.63242   0.34249524    3.8609417   0.49780722        0.002    3.9373423  0.010419277    83.122204    1035.0507 
   14600    179.65692   0.34305367    3.8864168   0.49780722        0.002    4.4234649  0.010313522    81.936579    1033.8979 
   14700    180.71824   0.34275786    3.9131355   0.49780722        0.002    4.1463092  0.009558319    81.488176    1032.7831 
   14800    181.76873   0.34309719    3.9399339   0.49780722        0.002    4.1670455  0.010578571    81.801053    1031.6397 
   14900    182.80687   0.34442818    3.9663626   0.49780722        0.002    5.2275436 0.0093621922    82.638487    1030.4246 
   15000    183.80633   0.34292387    3.9927757   0.49780722        0.002    3.7979389 0.0098355744    78.750448     1029.548 
   15100    184.85446   0.34374795    4.0185422   0.49780722        0.002    3.9794844  0.010111681    78.550903    1028.6844 
   15200    185.89426    0.3431867    4.0453908   0.49780722        0.002    4.0645027  0.010565282      78.8944    1027.7845 
   15300    186.92305   0.34340194    4.0726544   0.49780722        0.002    4.4898157  0.010415381    80.952851    1026.7014 
   15400     187.9739   0.34333041    4.1002478   0.49780722        0.002    4.3641651  0.011174141    82.187559    1025.5143 
   15500    189.02901   0.34412707    4.1268123   0.49780722        0.002    4.0479488   0.01038116    81.726522    1024.3642 
   15600    190.05426   0.34412492    4.1524247   0.49780722        0.002    4.0499062 0.0093733109    82.908358    1023.1189 
   15700     191.0192    0.3432225    4.1755973   0.49780722        0.002    4.0174556 0.0092506446    82.759753    1021.8857 
   15800    192.02631   0.34322393    4.2008072   0.49780722        0.002    4.1518276  0.010374661    83.245919    1020.6152 
   15900    193.05297   0.34393577    4.2269474   0.49780722        0.002    4.2427951  0.010369341    81.392128    1019.4903 
   16000     194.0468   0.34318377    4.2523994   0.49780722        0.002    3.8994172  0.010965164    80.935496    1018.4004 
   16100    195.08689   0.34507441    4.2782763   0.49780722        0.002    4.7188366  0.010080537     81.56792    1017.2589 
   16200    196.13054   0.34336078    4.3055267   0.49780722        0.002    4.9407723  0.010119839    82.534609     1016.042 
   16300    197.16259   0.34362514    4.3316104   0.49780722        0.002    4.2521064  0.011011621    82.104704    1014.8578 
   16400    198.20816   0.34502095    4.3579688   0.49780722        0.002    3.7502311  0.011071638    81.251799    1013.7383 
   16500    199.25038   0.34277889    4.3854907   0.49780722        0.002    4.1566973   0.01061305    82.047382    1012.5571 
   16600    200.31697   0.34229238    4.4127407   0.49780722        0.002    4.7274228   0.01042548    82.734613    1011.3245 
   16700    201.34831    0.3438258    4.4384054   0.49780722        0.002    4.1392975  0.010080287    82.107532    1010.1383 
   16800    202.38021   0.34361526    4.4647539   0.49780722        0.002    4.3983166 0.0098164034    82.556881    1008.9189 
   16900    203.43995   0.34496268    4.4914299   0.49780722        0.002    4.2406256  0.010975913    79.734587    1007.9104 
   17000    204.46896    0.3425586    4.5181327   0.49780722        0.002    4.4367363 0.0099291483    76.854676    1007.1285 
   17100    205.49561   0.34309336    4.5448752   0.49780722        0.002    4.1890138  0.010442506    78.904418    1006.1766 
   17200    206.55403   0.34241782    4.5723794   0.49780722        0.002    3.9274969  0.010809292    78.610616    1005.2439 
   17300    207.58334   0.34379733    4.5997502   0.49780722        0.002    3.9746321 0.0099027353    78.617025    1004.3067 
   17400    208.64269   0.34386231    4.6277575   0.49780722        0.002    3.7747201 0.0096964174    79.300752    1003.3137 
   17500     209.6945   0.34261995    4.6563366   0.49780722        0.002    3.7297445  0.010244248    78.752504    1002.3589 
   17600    210.71428   0.34257906    4.6840842   0.49780722        0.002    4.0282113  0.011178889    80.708366    1001.2565 
   17700     211.7157   0.34312892    4.7102811   0.49780722        0.002    4.1392239  0.010598163    82.566632    1000.0229 
   17800    212.74248   0.34375485    4.7364704   0.49780722        0.002    3.9317848  0.010571045    81.255813    998.87982 
   17900    213.79242   0.34350292    4.7634348   0.49780722        0.002     4.220837  0.010266727    79.007241    997.89638 
   18000     214.8214   0.34330431    4.7908881   0.49780722        0.002    3.9394418  0.010967358    78.745362    996.92897 
   18100    215.84779   0.34404222    4.8176301   0.49780722        0.002    4.0146827  0.010614971    82.499738    995.69672 
   18200    216.87925   0.34352461    4.8444341   0.49780722        0.002     4.274725  0.010002922    82.267419    994.48008 
   18300    217.91271   0.34330798    4.8713015   0.49780722        0.002    3.7396964  0.011230465    82.653176    993.23812 
   18400    218.97549   0.34388841    4.8984743   0.49780722        0.002    4.1169092  0.010474956    83.481927    991.94325 
   18500    220.01393   0.34379512    4.9261493   0.49780722        0.002    4.5749632  0.010594381    83.380991    990.65581 
   18600    221.06552   0.34374708    4.9534951   0.49780722        0.002    3.8979571  0.011202563    81.604817    989.48356 
   18700    222.11106   0.34340398     4.979913   0.49780722        0.002    4.7120012  0.010514335    82.381271    988.26053 
   18800    223.15387   0.34300784    5.0054015   0.49780722        0.002    4.0955433  0.011227515     83.23305    986.98394 
   18900    224.15999    0.3435223    5.0305845   0.49780722        0.002    3.9609718  0.010190736    82.802559    985.73495 
   19000    225.18937   0.34470165    5.0562711   0.49780722        0.002    3.8858487  0.010463919    81.846865    984.54652 
   19100    226.26021   0.34463807    5.0830847   0.49780722        0.002    4.0179223   0.01095453    82.426099    983.32136 
   19200    227.29887   0.34469051    5.1095019   0.49780722        0.002    3.8304639  0.010118431    82.708526     982.0789 
   19300    228.32073   0.34447858    5.1356697   0.49780722        0.002    4.9080468  0.010112061    81.147168    980.93406 
   19400    229.32288   0.34435425    5.1606788   0.49780722        0.002    4.6556333  0.010330742    82.176497    979.72418 
   19500    230.35145   0.34411894    5.1866242   0.49780722        0.002    4.3263775  0.010172082    81.820266     978.5361 
   19600    231.39361    0.3433912    5.2125863   0.49780722        0.002    4.0618642  0.011573172    81.687939     977.3558 
   19700    232.46191   0.34397405    5.2387859   0.49780722        0.002    3.9631089  0.010337089     81.26718    976.20089 
   19800    233.50005   0.34395739    5.2650834   0.49780722        0.002    3.7025751  0.010621091    83.911069    974.88816 
   19900    234.53393   0.34351889    5.2904993   0.49780722        0.002    4.3371147 0.0091635271    83.275735    973.61326 
   20000    235.53179   0.34373825     5.315881   0.49780722        0.002    4.3312586  0.010556541    82.229936    972.40018 
   20100    236.55325   0.34386232    5.3412715   0.49780722        0.002    4.4870265  0.010413385    83.592686    971.10827 
   20200    237.57677   0.34269915    5.3670613   0.49780722        0.002    3.7955039  0.010714803    83.216619    969.83866 
   20300    238.62728   0.34286954    5.3919654   0.49780722        0.002    4.0532705 0.0099978455    83.799398     968.5369 
   20400    239.65632   0.34398915    5.4167688   0.49780722        0.002    4.3426781 0.0099620004     83.47259    967.25444 
   20500    240.68812   0.34418757    5.4407711   0.49780722        0.002    4.0678578  0.010411876    81.887341    966.06275 
   20600    241.74868    0.3439399    5.4659297   0.49780722        0.002    4.2529488   0.01011315    83.281622    964.79196 
   20700    242.78048   0.34411852    5.4900434   0.49780722        0.002    4.4788691  0.010033889    83.322156    963.51961 
   20800    243.77904    0.3444216    5.5143142   0.49780722        0.002    4.7111739 0.0099117541    82.425565    962.29768 
   20900    244.80273   0.34445157    5.5388882   0.49780722        0.002    4.3211728   0.01023313    82.883128    961.05047 
   21000    245.82958    0.3442141    5.5632001   0.49780722        0.002    3.9806481   0.01067085    82.405387    959.82996 
   21100    246.86233   0.34312151    5.5878994   0.49780722        0.002    3.7800406 0.0095952121    82.186754    958.62159 
   21200    247.88827   0.34419418    5.6123404   0.49780722        0.002     4.106605  0.010536533    83.014429    957.36805 
   21300    248.96152   0.34398463    5.6390569   0.49780722        0.002    3.8555048  0.011187884    83.948185    956.06546 
   21400    249.99553   0.34339925    5.6641494   0.49780722        0.002    3.7320166  0.010592036    84.023374       954.76 
   21500    251.04279   0.34310018    5.6896583   0.49780722        0.002    3.8481064   0.01027219     81.54139    953.58788 
   21600    252.07879   0.34288598    5.7148004   0.49780722        0.002    4.1875288   0.01050631    82.212497    952.37892 
   21700    253.10326   0.34417022    5.7394016   0.49780722        0.002    4.1961251  0.010454386    82.668065    951.14571 
   21800    254.15401   0.34443516    5.7648437   0.49780722        0.002    4.0967749  0.010010097    83.352226    949.87709 
   21900    255.20747   0.34513293    5.7911952   0.49780722        0.002    4.2788574  0.010430627    82.536314     948.6514 
   22000    256.21543   0.34390953    5.8167518   0.49780722        0.002    3.8717244  0.010848628      82.7021    947.41723 
   22100    257.25151   0.34425447    5.8430456   0.49780722        0.002    4.1162692  0.010818217    82.576792    946.18974 
   22200    258.29894   0.34354274    5.8692177   0.49780722        0.002    4.2398192 0.0095271454    83.294473    944.92585 
   22300    259.30967   0.34394048    5.8947769   0.49780722        0.002    4.0294263  0.010290126    81.751706    943.74146 
   22400    260.37442   0.34365132    5.9220722   0.49780722        0.002    4.6159031  0.010384294    81.992608    942.54427 
   22500    261.38407   0.34432347    5.9475831   0.49780722        0.002    4.0953052  0.010709636    83.003126    941.29574 
   22600    262.43447   0.34341506    5.9733785   0.49780722        0.002    4.0002691  0.010177955    81.744154    940.11115 
   22700    263.45701   0.34312668    5.9987478   0.49780722        0.002    3.8503156   0.01075458    82.702182    938.87795 
   22800    264.48413   0.34508724    6.0245096   0.49780722        0.002    4.4151721  0.009616214    84.143424    937.57485 
   22900    265.48472   0.34371064    6.0490869   0.49780722        0.002    4.1524658  0.010269501    81.926929    936.38099 
   23000    266.50589   0.34434004    6.0753618   0.49780722        0.002    3.8241747 0.0096388524    80.258754    935.27184 
   23100    267.51629    0.3437951    6.1015486   0.49780722        0.002    4.1854804  0.010939749    82.350474    934.05614 
   23200    268.53931   0.34334859     6.127817   0.49780722        0.002     4.317796  0.010607592    82.419102    932.83712 
   23300    269.57901   0.34357791    6.1539611   0.49780722        0.002    3.7905104  0.010208768    84.287254    931.52961 
   23400    270.62138   0.34396014    6.1799408   0.49780722        0.002    4.6166557  0.010423746    82.761794    930.29473 
   23500    271.61123   0.34412374    6.2054784   0.49780722        0.002    3.7744571  0.010713896    84.195921    928.99308 
   23600    272.62947   0.34309225    6.2312161   0.49780722        0.002    3.6124057  0.010034738    84.295215    927.68786 
   23700    273.60356   0.34351923    6.2562868   0.49780722        0.002    4.5263974  0.010406241    83.543235    926.41802 
   23800    274.64805   0.34382273    6.2825978   0.49780722        0.002    3.7652333  0.010488393    82.483271    925.19804 
   23900    275.67004    0.3432867    6.3086078   0.49780722        0.002    4.0717596  0.011154785    84.132656    923.90245 
   24000    276.72356   0.34297714    6.3358343   0.49780722        0.002    4.0210207  0.010084079     82.12898    922.69957 
   24100    277.74778   0.34400244    6.3617494   0.49780722        0.002    4.0848199  0.010630696    83.797925    921.42021 
   24200    278.77966   0.34451143    6.3874584   0.49780722        0.002    4.1992073  0.010197233       84.026     920.1314 
   24300    279.85088   0.34513773    6.4147843   0.49780722        0.002    4.8891523 0.0096472026    83.272462    918.87696 
   24400    280.85374   0.34327587    6.4407873   0.49780722        0.002    5.1334177  0.009672002    83.036352    917.63353 
   24500    281.87738   0.34390504    6.4661744   0.49780722        0.002    3.8940269  0.010085591    83.640295    916.36363 
   24600    282.84793    0.3430714    6.4903273   0.49780722        0.002    3.9995914  0.010040011    84.850165    915.04208 
   24700    283.85235   0.34402027    6.5145614   0.49780722        0.002    3.5695092   0.01047782    82.753842     913.8127 
   24800    284.89048   0.34400066    6.5397939   0.49780722        0.002    4.1898101  0.009512297     84.05749    912.52667 
   24900    285.88842   0.34296394    6.5637514   0.49780722        0.002    3.8160179  0.010953726    82.968629     911.2885 
   25000    286.92568    0.3436026    6.5888741   0.49780722        0.002    4.3775677  0.010903961    81.328321    910.12352 
   25100    287.95574   0.34477788    6.6137713   0.49780722        0.002    4.1657807  0.010268555     83.31201    908.87065 
   25200    288.98071   0.34408764    6.6391691   0.49780722        0.002    4.1731905   0.01058401    83.875025    907.59429 
   25300    290.01006   0.34350513    6.6640632   0.49780722        0.002    3.9256543  0.010498074    83.608266    906.32983 
   25400    291.04572   0.34508521    6.6888654   0.49780722        0.002    4.2111795  0.010248254    83.361403    905.07631 
   25500    292.07692   0.34407955    6.7149554   0.49780722        0.002    4.2249482  0.010490732    83.596518    903.81336 
   25600    293.11937   0.34563107    6.7410521   0.49780722        0.002    4.4342721 0.0095966043    84.255371    902.52374 
   25700    294.15281   0.34457759    6.7672878   0.49780722        0.002    4.4478731 0.0094852102    82.308118    901.31609 
   25800    295.16119   0.34602402    6.7921626   0.49780722        0.002    3.8519316  0.010139255    83.705678    900.05006 
   25900    296.19993   0.34514405    6.8175007   0.49780722        0.002    4.0312423 0.0097595893    83.808105    898.78039 
   26000    297.18707   0.34445861    6.8418477   0.49780722        0.002    4.3119734 0.0092889462    82.018711    897.58541 
   26100    298.21134    0.3450406    6.8675944   0.49780722        0.002    3.7988548  0.010678419    83.760874    896.31844 
   26200    299.24498   0.34433828    6.8930837   0.49780722        0.002    4.0639698  0.010720049    83.700215    895.05446 
   26300    300.28228    0.3455839    6.9186761   0.49780722        0.002    3.9966861 0.0094246007    82.745075    893.82966 
   26400     301.2746   0.34385059    6.9430052   0.49780722        0.002    4.0898125   0.01035188    84.022886    892.55374 
   26500     302.2834   0.34468067    6.9681205   0.49780722        0.002    4.0401379 0.0094393804    83.665905    891.29255 
   26600    303.30817   0.34472779    6.9935823   0.49780722        0.002    4.6800591  0.010507524    83.046546    890.05645 
   26700    304.35794   0.34561548      7.01913   0.49780722        0.002    3.8914401     0.010346    83.063716    888.81992 
   26800    305.37228    0.3443705    7.0435382   0.49780722        0.002    3.6752084 0.0089964007    83.651288    887.56052 
   26900    306.32159   0.34453939    7.0661398   0.49780722        0.002    4.2357764   0.01028149    82.059903    886.36461 
   27000    307.31764   0.34493941    7.0898514   0.49780722        0.002    4.4687574    0.0103213    80.846354    885.21798 
   27100    308.36242    0.3439943    7.1143801   0.49780722        0.002     4.060021  0.010405397    81.924176     884.0269 
   27200    309.32347   0.34600111    7.1372219   0.49780722        0.002    4.4149944  0.010796666    82.893923     882.7974 
   27300    310.34673   0.34536075    7.1608046   0.49780722        0.002    4.2176205  0.010604489    81.346586    881.62917 
   27400    311.36929   0.34632649     7.185289   0.49780722        0.002    4.2214428  0.010587482    82.144019    880.42887 
   27500    312.41891    0.3454207    7.2107684   0.49780722        0.002    4.0860257    0.0108721    81.475355    879.25479 
   27600     313.4514   0.34517181     7.235715   0.49780722        0.002    3.8146568 0.0097159773    82.093519    878.05608 
   27700     314.4568   0.34513912    7.2593766   0.49780722        0.002      4.54038  0.010214079    82.717236    876.83326 
   27800    315.47213   0.34570005    7.2826051   0.49780722        0.002    3.9718351 0.0099007124    82.048987     875.6361 
   27900    316.51067   0.34637543    7.3067074   0.49780722        0.002    3.8744503 0.0093370798    82.920865    874.40568 
   28000    317.52359    0.3454483    7.3308473   0.49780722        0.002    4.0440209  0.011052503     82.92816    873.17515 
   28100    318.57734   0.34501507    7.3553053   0.49780722        0.002    4.1005881  0.010211334    82.124606    871.97499 
   28200    319.59961    0.3460115    7.3777924   0.49780722        0.002    4.1242668  0.009846235    83.574298    870.72093 
   28300    320.61833   0.34686229    7.4005473   0.49780722        0.002    4.0135118  0.010652418    83.536896    869.46864 
   28400    321.62342   0.34529425    7.4245546   0.49780722        0.002    4.1064184  0.010679661    82.812646    868.24312 
   28500    322.66658   0.34541587    7.4494451   0.49780722        0.002    3.9765907  0.011178299    84.357283    866.96227 
   28600    323.72348   0.34529408     7.473097   0.49780722        0.002    4.6184045 0.0093133648    83.518465     865.7118 
   28700     324.7813   0.34524257    7.4962485   0.49780722        0.002    4.1004711  0.011121118    82.250512    864.50756 
   28800    325.85078   0.34541301    7.5202544   0.49780722        0.002    4.4345564  0.010608153    83.467507    863.25941 
   28900    326.87282   0.34581778    7.5437347   0.49780722        0.002     4.553476  0.010184005     81.76079    862.07313 
   29000    327.90747    0.3458599    7.5670949   0.49780722        0.002    4.1324911  0.010310413    83.525933    860.82333 
   29100    328.96312   0.34516632    7.5910117   0.49780722        0.002    4.0601282  0.010913594    82.595899    859.60672 
   29200    329.99208   0.34515881    7.6148418   0.49780722        0.002    4.5177294 0.0099646394    83.692432     858.3517 
   29300    331.00369   0.34551674    7.6390973   0.49780722        0.002    4.2410508  0.010931089    82.677093     857.1325 
   29400    331.99946   0.34543219    7.6631707   0.49780722        0.002    4.7806658 0.0099780479    84.126429    855.86332 
   29500    333.01987    0.3460485    7.6872072   0.49780722        0.002    4.4378131  0.009797226    84.135998    854.59436 
   29600    334.02335   0.34580904     7.710624   0.49780722        0.002    4.4269792 0.0099679692     82.86541    853.36929 
   29700    335.03049   0.34535887    7.7342592   0.49780722        0.002    4.8464381 0.0096091994    83.785504    852.11298 
   29800     336.0145   0.34518094    7.7581746   0.49780722        0.002    4.0120236  0.009981671    82.855458    850.88865 
   29900    337.05328   0.34502904    7.7833071   0.49780722        0.002    4.1091927  0.010695523    83.095542    849.65626 
   30000    338.09265   0.34539921    7.8082075   0.49780722        0.002    4.2174845   0.01025797    82.348453    848.44954 
   30100    339.14227   0.34364572    7.8342659   0.49780722        0.002    3.9434027 0.0088135234     82.21709    847.24727 
   30200    340.16688   0.34506628    7.8587703   0.49780722        0.002    3.9832712  0.010807307    83.050279    846.01671 
   30300     341.2122   0.34506436    7.8846881   0.49780722        0.002    4.1764843 0.0097681023    82.205133    844.81479 
   30400    342.23669   0.34520103    7.9096134   0.49780722        0.002    4.3784327  0.010248067    82.995193    843.58627 
   30500    343.26867   0.34560058    7.9339679   0.49780722        0.002     4.258304 0.0093434288    83.655492    842.33624 
   30600    344.28259   0.34565797    7.9583532   0.49780722        0.002    3.6370717  0.010111073    83.535548    841.09045 
   30700    345.33301   0.34488539    7.9831085   0.49780722        0.002    3.6819316  0.011167903    82.896265    839.86582 
   30800    346.36138   0.34537355    8.0069734   0.49780722        0.002    4.0287995 0.0096210349    82.730647    838.64674 
   30900     347.3844    0.3464061    8.0312735   0.49780722        0.002    4.4086222 0.0098506615    83.017863    837.41837 
   31000    348.41204   0.34495055    8.0560029   0.49780722        0.002    4.2614269  0.010385174     81.13596    836.25234 
   31100    349.45324   0.34591962    8.0808204   0.49780722        0.002    3.9439897  0.010576926    83.154009    835.01962 
   31200    350.49659   0.34637838    8.1071267   0.49780722        0.002    4.6591424 0.0095627948    82.305938    833.81441 
   31300    351.49601   0.34460873    8.1321241   0.49780722        0.002     3.668558   0.01022776    83.595835    832.56799 
   31400    352.48316   0.34543049    8.1561277   0.49780722        0.002    4.0382062 0.0096785436    83.017797    831.34009 
   31500    353.49125   0.34708207    8.1799719   0.49780722        0.002    4.4994099  0.010428178     82.05255    830.14316 
   31600    354.51451   0.34580479    8.2052635   0.49780722        0.002    4.1278691  0.010224597    83.017879    828.91541 
   31700    355.54209    0.3472497    8.2302746   0.49780722        0.002    4.3373687   0.01034526    83.204634    827.68198 
   31800    356.53127     0.345186    8.2541725   0.49780722        0.002    4.1984088  0.010078103     82.60278    826.46753 
   31900    357.54901   0.34517866    8.2799898   0.49780722        0.002    4.6207214 0.0099054812    83.112189    825.23726 
   32000    358.58065   0.34595021    8.3062492   0.49780722        0.002     4.160257 0.0099061109    82.981975    824.01118 
   32100     359.5966   0.34615383    8.3321313   0.49780722        0.002    4.5738135 0.0097617982    77.721578    822.95775 
   32200    360.61589   0.34519062    8.3582402   0.49780722        0.002    4.8186426  0.010078148    78.145875    821.88817 
   32300    361.63534   0.34660942    8.3843335   0.49780722        0.002    3.9557673  0.010094106    78.256452    820.81349 
   32400    362.68636    0.3462037     8.411591   0.49780722        0.002    4.3740385  0.010268956    79.100022    819.70913 
   32500    363.69371   0.34617879    8.4369115   0.49780722        0.002     4.427292 0.0099695578    79.410339    818.59352 
   32600    364.66418   0.34701258    8.4615793   0.49780722        0.002      4.15437  0.010728636    82.552721    817.37793 
   32700    365.69894   0.34604453    8.4883773   0.49780722        0.002    4.5423656 0.0096084797    83.648268    816.12971 
   32800    366.69607   0.34730348    8.5137641   0.49780722        0.002    4.0973536  0.010445652    82.596582      814.913 
   32900    367.74154   0.34559612    8.5404541   0.49780722        0.002    3.9471638 0.0095890658    83.668208     813.6647 
   33000    368.76265   0.34649963      8.56648   0.49780722        0.002    3.8369742 0.0093682264    82.055456    812.46441 
   33100    369.76602     0.345666    8.5925562   0.49780722        0.002    4.1661094  0.010645008     83.58569    811.21892 
   33200    370.77827   0.34615613    8.6184181   0.49780722        0.002    3.7676455 0.0097343122    84.120001    809.95844 
   33300     371.8048   0.34691625    8.6436073   0.49780722        0.002    4.0217875  0.010348213    83.586389    808.71359 
   33400    372.80259   0.34484623    8.6680819   0.49780722        0.002    3.9856914 0.0097954602    83.694754    807.46594 
   33500    373.81726    0.3453479    8.6931189   0.49780722        0.002    5.2029946 0.0090803844    83.144316     806.2343 
   33600    374.81846   0.34611276    8.7171522   0.49780722        0.002    3.7444487  0.010777208    82.668407    805.01653 
   33700    375.84043    0.3460352    8.7422939   0.49780722        0.002    4.3623019  0.009795709    82.557986    803.80198 
   33800     376.8041   0.34616774    8.7651515   0.49780722        0.002    4.4833463 0.0097642647    83.699647    802.55509 
   33900    377.77273   0.34600918    8.7884733   0.49780722        0.002    3.8835443 0.0097388153    83.404934    801.31674 
   34000    378.78512   0.34641523    8.8132853   0.49780722        0.002     4.218949  0.010449922    80.188078      800.172 
   34100    379.80335   0.34516419    8.8384017   0.49780722        0.002    4.1038397 0.0099095665    83.749919    798.92415 
   34200    380.82417   0.34539744    8.8627578   0.49780722        0.002    4.9511998 0.0095301459    82.888566    797.70049 
   34300    381.85479   0.34591198    8.8874482   0.49780722        0.002      3.80386  0.010728216    83.478455     796.4606 
   34400    382.88212   0.34511257    8.9120599   0.49780722        0.002    3.9274121  0.009402224    82.853264     795.2382 
   34500    383.90115   0.34514204    8.9364481   0.49780722        0.002    4.4435718 0.0092426041    83.740455    793.99161 
   34600    384.92373     0.345521     8.960838   0.49780722        0.002    3.9882447  0.010648278    82.039967     792.7921 
   34700    385.94626   0.34590762    8.9852716   0.49780722        0.002    4.1210712 0.0096973101    80.404408    791.63914 
   34800    387.00344   0.34497607    9.0108766   0.49780722        0.002    4.6874884 0.0095296521    82.313061    790.43164 
   34900    387.95859   0.34615915    9.0342888   0.49780722        0.002    4.1851183    0.0101736    82.649479    789.21486 
   35000    388.97206   0.34572281    9.0587033   0.49780722        0.002    4.1700543  0.010629132    81.382131    788.03312 
   35100    389.98321   0.34622735    9.0824204   0.49780722        0.002    4.4584268  0.009959003    82.722424    786.81429 
   35200    390.97269   0.34759178    9.1056764   0.49780722        0.002    4.4780064  0.010984529    84.274891    785.55453 
   35300     392.0092   0.34675723    9.1294629   0.49780722        0.002    4.0990752  0.010684546    82.957405    784.32972 
   35400    393.01438   0.34533594    9.1539777   0.49780722        0.002    4.1337503  0.010792254    83.111761    783.10094 
   35500    394.04825   0.34513567    9.1783534   0.49780722        0.002    3.6280593  0.011089089    83.196349    781.87008 
   35600    395.04506   0.34512039    9.2028901   0.49780722        0.002    4.1035861  0.010265109    84.201803    780.61341 
   35700    396.06567    0.3455857    9.2279641   0.49780722        0.002    3.6968825 0.0098764586     83.81323    779.36705 
   35800    397.10111   0.34683598    9.2536317   0.49780722        0.002    3.9756798 0.0097441795    79.886301    778.22616 
   35900    398.11599   0.34605188    9.2792626   0.49780722        0.002    4.2471246  0.010260425    79.253686     777.1025 
   36000    399.12544   0.34618326    9.3039056   0.49780722        0.002     4.713933  0.010187368    82.691372    775.88482 
   36100    400.13502   0.34555528    9.3287515   0.49780722        0.002    4.5835137    0.0101962    83.380726    774.64948 
   36200    401.15315   0.34476843     9.353841   0.49780722        0.002    4.8165174  0.010123603    83.263254    773.41733 
   36300    402.19618   0.34494418    9.3795892   0.49780722        0.002    4.2743144  0.011165086    82.764946    772.19804 
   36400    403.22686   0.34640703    9.4048334   0.49780722        0.002    4.2289354 0.0098853145    79.537027    771.06448 
   36500    404.27399   0.34553146    9.4307949   0.49780722        0.002    4.2746326  0.011252227    79.046505    769.94382 
   36600    405.32235   0.34575106    9.4563148   0.49780722        0.002    3.6148089  0.010274053    78.423873    768.83977 
   36700     406.3307   0.34547606    9.4813747   0.49780722        0.002    3.8546451  0.010224684      79.6401     767.7012 
   36800    407.33168   0.34586108    9.5058808   0.49780722        0.002    3.9124292  0.011112597    80.155744    766.54812 
   36900    408.37737   0.34699713    9.5310268   0.49780722        0.002     4.086109 0.0097987204    78.774645    765.43193 
   37000    409.38297    0.3455694     9.555167   0.49780722        0.002    4.1055729 0.0097798647    78.863678    764.31248 
   37100    410.40482    0.3466506    9.5790722   0.49780722        0.002    3.7754228  0.011122562    78.027524    763.21526 
   37200    411.43438   0.34572768    9.6031968   0.49780722        0.002    4.3845298  0.011012928    80.521397    762.05004 
   37300     412.4569   0.34528374    9.6269125   0.49780722        0.002    3.8720483  0.010129715    83.370782    760.81306 
   37400    413.48414   0.34596898    9.6524938   0.49780722        0.002    4.5457988 0.0097005693     84.24564    759.55543 
   37500     414.5058   0.34490069    9.6775337   0.49780722        0.002    5.2339828  0.009408833     83.11494    758.32509 
   37600    415.52446   0.34593063    9.7008381   0.49780722        0.002    3.9534235  0.010694602    83.115022    757.09489 
   37700    416.54865   0.34505462    9.7247758   0.49780722        0.002    4.0434495 0.0093284686     83.01456    755.86725 
   37800    417.54425    0.3469069    9.7476334   0.49780722        0.002    3.9354036 0.0093427962    83.709403    754.62327 
   37900    418.55544   0.34678719    9.7703958   0.49780722        0.002    4.1190488  0.010436663    83.121578     753.3934 
   38000    419.57627   0.34670939    9.7945227   0.49780722        0.002    3.9649018  0.010034602    83.281076    752.15991 
   38100    420.60603   0.34695801    9.8186718   0.49780722        0.002    4.2108836  0.010892409    82.385899    750.94778 
   38200    421.62063    0.3458734    9.8435606   0.49780722        0.002    4.1351175  0.010346252    83.359167    749.71272 
   38300    422.65771   0.34574533    9.8687483   0.49780722        0.002    4.1593068  0.010647424    83.844862    748.46665 
   38400    423.66551   0.34511922     9.893252   0.49780722        0.002    4.0078166  0.010293009    82.851824     747.2438 
   38500    424.64561   0.34523927    9.9178193   0.49780722        0.002    4.1250243   0.01025649    82.860466    746.02082 
   38600    425.65745   0.34652705     9.942978   0.49780722        0.002    4.6347662 0.0098859446    84.435366    744.76211 
   38700    426.66106   0.34403282    9.9679742   0.49780722        0.002    3.8738003 0.0093816316    82.933457    743.53777 
   38800    427.64205   0.34562278    9.9911253   0.49780722        0.002    4.5792085 0.0098062179    84.263242    742.28351 
   38900    428.63481   0.34614312    10.014607   0.49780722        0.002    4.1777511  0.010237999    83.588138    741.04465 
   39000    429.64835   0.34486982    10.039184   0.49780722        0.002     4.192294   0.01072721    81.631658    739.85085 
   39100    430.63193   0.34527295     10.06302   0.49780722        0.002      4.27202  0.010207554    83.433304     738.6157 
   39200    431.63106   0.34727235    10.086138   0.49780722        0.002    4.2170288 0.0099718479    83.360857    737.38235 
   39300    432.61489   0.34642801    10.109387   0.49780722        0.002    3.9903772  0.011325853    84.723145    736.11937 
   39400    433.65419   0.34560024    10.133595   0.49780722        0.002    4.2360161  0.010690633    83.272545    734.88844 
   39500    434.63383   0.34679432    10.155918   0.49780722        0.002     4.252959  0.010029536    83.840069    733.64521 
   39600     435.6053   0.34587234    10.178937   0.49780722        0.002    4.0713107 0.0096297079    82.854034    732.42389 
   39700    436.59327    0.3452089    10.202737   0.49780722        0.002    4.0467096  0.009041282    82.382225    731.21314 
   39800    437.57843   0.34404911    10.226104   0.49780722        0.002    4.3526417  0.011060345    83.987739    729.96728 
   39900    438.61357   0.34666541    10.250546   0.49780722        0.002    3.9230553  0.010306095    83.941985    728.72266 
   40000    439.63108   0.34569658    10.275147   0.49780722        0.002     3.981574  0.010781865    81.575709    727.53016 
   40100    440.66377   0.34541468    10.299512   0.49780722        0.002    4.6288342  0.009707025    83.076565     726.3044 
   40200    441.61461   0.34589844    10.321701   0.49780722        0.002    4.3065005 0.0097662859    83.856596    725.06209 
   40300    442.64433   0.34699104    10.346252   0.49780722        0.002     4.325612 0.0097586567    83.588272    723.82571 
   40400     443.6222   0.34608985    10.369831   0.49780722        0.002    4.9356584 0.0088402442    82.451928    722.61385 
   40500     444.6266    0.3457243    10.394437   0.49780722        0.002    4.2238765   0.01038461    82.153608    721.40845 
   40600    445.63456   0.34597514    10.418802   0.49780722        0.002    3.9124444   0.01025443    82.838308    720.18827 
   40700    446.67965   0.34679041    10.444336   0.49780722        0.002    4.3524671  0.010394893    83.070691    718.96324 
   40800    447.70811   0.34629454     10.46903   0.49780722        0.002    4.4687273  0.010368753    83.249042    717.73457 
   40900    448.73312   0.34657925    10.493377   0.49780722        0.002    4.4632741  0.010084752    82.727628    716.51697 
   41000    449.77602   0.34624307    10.518245   0.49780722        0.002    4.2800277  0.010375346    80.679769    715.34357 
   41100    450.81642   0.34481461    10.543091   0.49780722        0.002    4.0784949  0.010734064    83.968066    714.10029 
   41200    451.86356   0.34542223    10.567692   0.49780722        0.002    4.2785628  0.010265772    83.867428     712.8593 
   41300    452.86262   0.34538514    10.590677   0.49780722        0.002    4.0198381  0.010241369    84.235286    711.61114 
   41400    453.86098    0.3451505    10.612622   0.49780722        0.002    4.4448452  0.010529576    83.253057    710.38311 
   41500     454.8836   0.34472464    10.635497   0.49780722        0.002    3.6370898 0.0098036875    84.029586    709.13955 
   41600    455.92383   0.34695648    10.658751   0.49780722        0.002    4.6141795  0.010004672    84.021691    707.89641 
   41700    456.93937   0.34517155    10.682964   0.49780722        0.002    4.4630733  0.010117193    84.193014    706.65014 
   41800    457.96565   0.34495511    10.707226   0.49780722        0.002    3.7117393 0.0094770121     83.22826    705.42332 
   41900    458.98249   0.34695847    10.730768   0.49780722        0.002    4.1901107 0.0094775739    83.933586    704.18262 
   42000    459.98819   0.34675047    10.754434   0.49780722        0.002    4.1963703    0.0105046    83.513593    702.95043 
   42100    461.01668   0.34528015    10.778996   0.49780722        0.002    4.4838814 0.0095974503    82.279668     701.7431 
   42200    461.98183   0.34595987    10.802448   0.49780722        0.002     4.327297  0.010116941    83.953545    700.50254 
   42300    463.00252   0.34540406    10.827897   0.49780722        0.002    3.7718831  0.010322898    84.587189    699.25005 
   42400    464.00711   0.34624831    10.852922   0.49780722        0.002    4.1431717  0.010483858    82.720857    698.03412 
   42500    465.04536   0.34582294    10.878972   0.49780722        0.002    4.5078991  0.010445219     83.99662    696.79338 
   42600    466.04816   0.34513162    10.904474   0.49780722        0.002    3.9909313  0.011127999    83.811622    695.55642 
   42700    467.10755   0.34589928    10.931208   0.49780722        0.002    3.9414587 0.0093150286    82.722783    694.34074 
   42800    468.09959    0.3465901    10.956046   0.49780722        0.002    4.0191511  0.010300174    84.002962    693.10047 
   42900    469.11778   0.34566332    10.981427   0.49780722        0.002    4.4721069 0.0094066871    83.026622    691.87906 
   43000    470.12839   0.34615877    11.006554   0.49780722        0.002    4.2993342 0.0097902696    82.745777    690.66315 
   43100    471.13965   0.34608059     11.03136   0.49780722        0.002    5.1523958 0.0091664594     83.28703    689.43691 
   43200    472.17883   0.34703876    11.057427   0.49780722        0.002    4.3841526 0.0096670467    84.423741    688.18953 
   43300    473.17517   0.34721855    11.082395   0.49780722        0.002    3.9305148 0.0093132517    83.893177    686.95225 
   43400    474.17904    0.3454702       11.108   0.49780722        0.002    3.7405087  0.010317389    84.206908    685.70939 
   43500      475.208   0.34509769    11.133425   0.49780722        0.002    4.5964303   0.00981734    84.180476    684.46727 
   43600    476.21857   0.34613224     11.15867   0.49780722        0.002    4.2951193  0.010119115    83.716337    683.23391 
   43700    477.22125   0.34602358    11.183118   0.49780722        0.002    3.8169673  0.010506873    81.390469    682.04471 
   43800    478.23115   0.34566962    11.208606   0.49780722        0.002     3.904838    0.0108197     79.18302    680.89928 
   43900    479.25806    0.3449266    11.234291   0.49780722        0.002    4.0539771 0.0084623407    79.107482    679.75486 
   44000    480.24442   0.34590815     11.25864   0.49780722        0.002    4.1495085 0.0089962675    82.388682    678.54581 
   44100    481.21217   0.34627102    11.283137   0.49780722        0.002    4.1197454  0.010499085    82.781591    677.32945 
   44200    482.25585   0.34658532    11.309793   0.49780722        0.002    3.9875853  0.010042933    82.194533    676.12401 
   44300    483.25808   0.34641819    11.334994   0.49780722        0.002    4.2558552  0.010764241    84.199183     674.8821 
   44400    484.31345   0.34700048    11.361996   0.49780722        0.002    3.6428347  0.009941257    83.767733     673.6481 
   44500    485.35738   0.34687831    11.387055   0.49780722        0.002    4.1896634 0.0089929439     83.91085    672.41174 
   44600    486.36342   0.34747471    11.411755   0.49780722        0.002    4.0482623  0.011251912    83.951428    671.17486 
   44700    487.40495   0.34724148    11.437671   0.49780722        0.002     4.391979 0.0098315552    82.875038    669.95733 
   44800    488.41886   0.34733571    11.463784   0.49780722        0.002    3.8753503  0.010668458    83.860033    668.72238 
   44900      489.436   0.34494468    11.489762   0.49780722        0.002    4.3690599  0.010703781    83.682714    667.49072 
   45000    490.47641   0.34701509     11.51623   0.49780722        0.002    4.2662994  0.010793369    82.715931     666.2763 
   45100    491.49503   0.34635368    11.541779   0.49780722        0.002    4.1574034  0.010634325    83.009385    665.05669 
   45200    492.55239   0.34726682    11.568969   0.49780722        0.002    4.8001649 0.0095826793    83.476976    663.82898 
   45300    493.55547    0.3459408      11.5944   0.49780722        0.002    3.8222461  0.010455897    84.405427    662.58548 
   45400    494.57829   0.34729793    11.619999   0.49780722        0.002    3.6443973 0.0098985506    84.127003    661.34696 
   45500    495.61137   0.34715612    11.645916   0.49780722        0.002    3.9359521  0.010628198    83.839935    660.11353 
   45600    496.64534   0.34593616    11.671635   0.49780722        0.002    4.3729628 0.0095249873    83.411469    658.88759 
   45700    497.69059   0.34763365    11.698039   0.49780722        0.002    4.5221768 0.0099301319    84.244287    657.64768 
   45800     498.6868   0.34680949    11.723944   0.49780722        0.002    3.9414065  0.010179874    83.841208    656.41476 
   45900    499.70152   0.34703654    11.749223   0.49780722        0.002    4.2029864 0.0099541209    83.252231    655.19197 
   46000      500.708    0.3459979    11.774567   0.49780722        0.002     4.129243  0.011165542    82.308797    653.98542 
   46100     501.7518   0.34762893    11.801117   0.49780722        0.002    4.0303536 0.0089292335    82.519069    652.77522 
   46200    502.75557   0.34813208    11.826593   0.49780722        0.002    4.1579113  0.010015585    82.422779    651.56667 
   46300    503.78564   0.34646445    11.853506   0.49780722        0.002    3.8818638 0.0093747448    83.850829    650.33412 
   46400    504.79421    0.3472507    11.879229   0.49780722        0.002    3.9314999  0.010707334    82.955945    649.11661 
   46500    505.82242   0.34674913    11.906511   0.49780722        0.002    3.9675282 0.0097637165     83.83727    647.88458 
   46600    506.82986   0.34641614    11.932351   0.49780722        0.002    5.4478498  0.008541861    83.470647    646.65871 
   46700    507.83119   0.34576573    11.956857   0.49780722        0.002     4.399331 0.0098267192    83.272131    645.43622 
   46800    508.85774   0.34640878    11.982374   0.49780722        0.002    4.9979774 0.0099109174    82.656922    644.22399 
   46900     509.8292   0.34591747    12.006716   0.49780722        0.002    4.4856272 0.0097587773    83.204436    643.00275 
   47000    510.83687   0.34530537    12.032199   0.49780722        0.002    4.1320038 0.0094875876    83.003389    641.78488 
   47100    511.84754   0.34578914    12.057591   0.49780722        0.002    4.2937946 0.0097125519    82.678592    640.57238 
   47200    512.88225   0.34498805    12.083328   0.49780722        0.002    3.9793366  0.010601526    83.630705    639.34449 
   47300    513.90988   0.34569212    12.110017   0.49780722        0.002    3.9605905  0.010965643    83.931907    638.11195 
   47400    514.94083   0.34555421     12.13674   0.49780722        0.002     4.404439 0.0097121517    83.343828    636.88892 
   47500    515.88052   0.34638431    12.161061   0.49780722        0.002    4.3742633 0.0098336388    82.932358    635.67256 
   47600    516.89684   0.34734486    12.186985   0.49780722        0.002    4.0917414  0.010289035    83.506526    634.44712 
   47700    517.88698   0.34609819    12.211593   0.49780722        0.002    3.9423494  0.010465075    82.342682    633.24036 
   47800    518.92465   0.34717158    12.237641   0.49780722        0.002      4.35711  0.010685684    84.098496    632.00587 
   47900    519.92684   0.34637103    12.262573   0.49780722        0.002    4.1009408 0.0096113083    83.995425    630.77316 
   48000    520.94032   0.34619768    12.287621   0.49780722        0.002    4.1330793  0.010400698    81.235559    629.58445 
   48100    521.96478   0.34569376    12.313629   0.49780722        0.002    3.9954785  0.010405604    81.059346    628.39845 
   48200    523.01126   0.34694135    12.339693   0.49780722        0.002    4.3363506  0.010191986    81.692951    627.20196 
   48300    524.01787   0.34725156    12.363871   0.49780722        0.002    4.3036602  0.010117329    80.710509    626.02131 
   48400    525.01902   0.34746772    12.389489   0.49780722        0.002    4.5918486  0.010770434    84.319228    624.78389 
   48500    526.02154   0.34577805    12.415806   0.49780722        0.002    5.0946967 0.0095351082    83.464584    623.55957 
   48600    527.01718    0.3466903    12.441283   0.49780722        0.002    3.9062388 0.0099468706    82.597395    622.34867 
   48700    528.03467   0.34577967    12.467091   0.49780722        0.002    3.9621245  0.010367656    82.302756    621.14233 
   48800     529.0429   0.34618932    12.492773   0.49780722        0.002    4.2263526  0.010872416    81.936323    619.94166 
   48900    530.05458   0.34544363    12.517749   0.49780722        0.002    3.7890381  0.010414242    82.889598    618.72624 
   49000    531.08839   0.34552267    12.542751   0.49780722        0.002    4.7256491  0.010145288    81.916448    617.52577 
   49100    532.05908   0.34546459    12.567117   0.49780722        0.002    4.1311658  0.010446448    82.483968    616.31651 
   49200    533.07231   0.34498243    12.591952   0.49780722        0.002    4.1902453 0.0093847693     83.99556    615.08471 
   49300    534.07047   0.34576233    12.616415   0.49780722        0.002    3.9695111  0.010063382    83.105898    613.86619 
   49400    535.08518   0.34571898    12.641074   0.49780722        0.002    3.9162062  0.010336787    83.942909    612.63544 
   49500     536.1109   0.34621612      12.6662   0.49780722        0.002    3.8017161  0.010395744    82.835625     611.4211 
   49600    537.12294   0.34670625    12.690886   0.49780722        0.002    4.0483599 0.0099597311    82.981417    610.20462 
   49700    538.14935   0.34707508    12.716352   0.49780722        0.002    4.0893371  0.010276289    80.931029     609.0191 
   49800    539.20031     0.347106    12.742312   0.49780722        0.002    3.9510598  0.010001601     69.74085    608.03322 
   49900    540.21492   0.34643854    12.767997   0.49780722        0.002    3.5603927   0.01001696    64.865734    607.15375 
   50000    541.24569   0.34529942    12.794022   0.49780722        0.002    4.0947388  0.010198889    69.151796    606.17608 
   50100    542.23116   0.34738161    12.819105   0.49780722        0.002     4.196348  0.010433504    67.792615    605.22541 
   50200    543.26736   0.34661961    12.844916   0.49780722        0.002    4.1283645 0.0099240129    69.230451    604.24226 
   50300    544.29257   0.34611839     12.87029   0.49780722        0.002    4.1555564   0.01021253    68.077183    603.28146 
   50400    545.28525   0.34668118    12.894452   0.49780722        0.002    3.9000495  0.009590141    68.578451    602.30807 
   50500    546.30317   0.34523747    12.919626   0.49780722        0.002    4.5939825  0.010682566    74.783066    601.21418 
   50600    547.31912   0.34701298      12.9453   0.49780722        0.002     3.787873  0.010781502     76.26555    600.09395 
   50700    548.37138   0.34738632    12.972611   0.49780722        0.002    4.6528769  0.010295205    75.890335    598.97927 
   50800     549.3726   0.34627763    12.998671   0.49780722        0.002    5.0706221 0.0095907285     75.84439    597.86456 
   50900    550.37226   0.34664626    13.024395   0.49780722        0.002    4.3860392  0.009464612    76.782979     596.7335 
   51000    551.36663   0.34619505     13.05021   0.49780722        0.002    4.0525771 0.0099284746    75.947102    595.61555 
   51100    552.39539   0.34577252    13.076412   0.49780722        0.002    4.1337502  0.010212543    76.031164    594.49542 
   51200    553.40588   0.34610865    13.102271   0.49780722        0.002    3.8033138   0.01015481    77.096967     593.3572 
   51300    554.41186    0.3465931    13.128118   0.49780722        0.002    4.2350187 0.0097053307    76.137574    592.23388 
   51400    555.44255   0.34788539    13.153484   0.49780722        0.002    4.2405115 0.0099815149    77.090832    591.09446 
   51500    556.43132    0.3479087    13.178945   0.49780722        0.002     4.029592  0.010083797    76.844637    589.95835 
   51600    557.40327   0.34785937    13.203863   0.49780722        0.002    4.1158975  0.010137075    77.093637    588.81765 
   51700    558.38992    0.3484879    13.228319   0.49780722        0.002    4.1219178  0.010566776    76.622413    587.68379 
   51800    559.40806   0.34681145    13.253725   0.49780722        0.002    4.5324123  0.010381785     77.21025    586.54004 
   51900    560.44313   0.34699035    13.278482   0.49780722        0.002    4.0971305  0.010413811    77.509097    585.39106 
   52000    561.45031   0.34770623    13.302809   0.49780722        0.002    4.0186443  0.010991554    75.052828    584.28053 
   52100    562.49998   0.34790439    13.327714   0.49780722        0.002    3.8998405  0.010842858    76.874989     583.1401 
   52200    563.52839   0.34772559    13.352261   0.49780722        0.002    4.2780185 0.0094078992    77.443265    581.99032 
   52300    564.53253   0.34693672    13.375669   0.49780722        0.002    4.0500966  0.010454364    78.025216    580.83122 
   52400    565.53275   0.34804908    13.398492   0.49780722        0.002    4.3038137  0.010154658    77.879195    579.67383 
   52500    566.51901   0.34787315    13.421689   0.49780722        0.002    4.0685335 0.0091973982    77.075504    578.52807 
   52600    567.50492   0.34726651    13.443743   0.49780722        0.002    4.4313356 0.0099831005    77.704429    577.37227 
   52700    568.54377   0.34743821    13.467463   0.49780722        0.002    4.1226591 0.0094398702     76.07183    576.24076 
   52800    569.55408    0.3469015    13.490898   0.49780722        0.002    3.9723878  0.010445902    76.909652    575.09576 
   52900    570.57667   0.34739168    13.514284   0.49780722        0.002    4.5344358  0.010157462    76.118327    573.96221 
   53000     571.5755   0.34816704    13.536715   0.49780722        0.002    4.0509822  0.010356055    76.669474     572.8196 
   53100    572.63417   0.34762312    13.561648   0.49780722        0.002    4.8964792 0.0098170838    76.645446    571.67674 
   53200    573.66749   0.34770201     13.58495   0.49780722        0.002    3.8926371  0.010374307    77.308303    570.52344 
   53300    574.68629   0.34585397    13.609088   0.49780722        0.002    4.1658325  0.010442549    76.195182    569.38616 
   53400     575.7237   0.34794728    13.633725   0.49780722        0.002    4.7413884 0.0095114583    76.608278    568.24205 
   53500    576.71801   0.34626768    13.656538   0.49780722        0.002    4.0991428 0.0097588555     76.24165     567.1028 
   53600     577.7501   0.34755306    13.680748   0.49780722        0.002    4.3796342 0.0098791884    76.879441    565.95348 
   53700    578.77599   0.34625921    13.705253   0.49780722        0.002    4.0715095  0.010211734    76.010937    564.81642 
   53800     579.7628   0.34640831    13.729035   0.49780722        0.002    3.7209976  0.010450722    76.915801     563.6654 
   53900    580.77678   0.34581716    13.753413   0.49780722        0.002    4.2259458  0.010388684    76.587687    562.51859 
   54000    581.78038    0.3445401    13.777747   0.49780722        0.002    4.1641549  0.010127103    76.510275    561.37232 
   54100    582.79051   0.34575008    13.803104   0.49780722        0.002    4.2494517 0.0097587177    76.369392    560.22749 
   54200    583.82973   0.34690088    13.828454   0.49780722        0.002    4.0581417  0.010322613    77.125916    559.07121 
   54300    584.84906   0.34616888     13.85268   0.49780722        0.002    3.9317653 0.0099938093    76.495596     557.9234 
   54400    585.86897   0.34583421      13.8767   0.49780722        0.002      4.04641  0.010413633    76.171146    556.77968 
   54500    586.88757   0.34545574    13.900772   0.49780722        0.002    4.4116701 0.0099991492    77.494332    555.61662 
   54600    587.89539   0.34672784    13.924821   0.49780722        0.002    4.7776072 0.0099523083    76.277825     554.4702 
   54700    588.93047   0.34573181    13.949463   0.49780722        0.002    4.0458587 0.0097380402    76.153168    553.32496 
   54800    589.94211   0.34648229    13.973715   0.49780722        0.002    4.3520894  0.010457879     76.66988    552.17181 
   54900    590.95538   0.34789547    13.998358   0.49780722        0.002    4.1430557 0.0098317501    76.163442    551.02523 
   55000    591.95601   0.34663647    14.023149   0.49780722        0.002    4.2148255 0.0096866161    76.446811    549.87407 
   55100    592.95977   0.34711468    14.047323   0.49780722        0.002    4.5321632  0.010069643    76.211616    548.72562 
   55200    593.97973   0.34799269    14.071806   0.49780722        0.002    4.5629238  0.010281288    76.697878    547.56983 
   55300    594.96611   0.34665148    14.095253   0.49780722        0.002    4.5653845  0.010088014    76.199764    546.42039 
   55400    595.99676   0.34717078     14.11941   0.49780722        0.002    4.8119347  0.010331829    77.149835    545.25736 
   55500    597.00292   0.34724757    14.144112   0.49780722        0.002    3.6096199 0.0096114565    76.174176    544.10716 
   55600    598.01798   0.34648168    14.169153   0.49780722        0.002    4.8754643 0.0097697818    77.137093    542.94328 
   55700    599.04873   0.34621113    14.194448   0.49780722        0.002     4.173554  0.010606626     75.91205    541.79557 
   55800     600.0545   0.34703465    14.219296   0.49780722        0.002    4.1162823 0.0098407747    76.651721    540.63718 
   55900    601.08881   0.34739544     14.24429   0.49780722        0.002    4.4410126  0.010091608    76.662369    539.47813 
   56000    602.12871   0.34782049    14.269476   0.49780722        0.002    4.4109241 0.0096120147    76.917931    538.31515 
   56100    603.16831   0.34644195    14.294709   0.49780722        0.002    4.0012418  0.010579829    75.368518     537.1726 
   56200    604.19826   0.34682392    14.320028   0.49780722        0.002    3.7337686  0.010117463    75.834558    536.02303 
   56300    605.19912   0.34653456    14.344504   0.49780722        0.002     4.315122  0.010340594    77.006306    534.85729 
   56400    606.22465   0.34608519    14.369739   0.49780722        0.002    4.2736052  0.010150174    76.173706    533.70206 
   56500    607.24072   0.34700392    14.393425   0.49780722        0.002    3.8843079  0.010283659    76.651777    532.53996 
   56600    608.27223   0.34798434    14.418537   0.49780722        0.002    3.9533624  0.010440442     75.66249    531.39044 
   56700    609.31604   0.34554892    14.443869   0.49780722        0.002    3.7540652  0.011001323    75.848423    530.23783 
   56800    610.27292   0.34639895    14.467186   0.49780722        0.002    4.1545457  0.010399032    76.346942     529.0781 
   56900    611.29639   0.34570395    14.491183   0.49780722        0.002    4.3244459  0.010429537    77.413291    527.90417 
   57000     612.3254   0.34725901    14.516063   0.49780722        0.002    4.0350553  0.010115099    76.452065    526.74208 
   57100    613.31227    0.3479239    14.539801   0.49780722        0.002    4.8100186 0.0098666161    75.804159    525.58787 
   57200     614.3119   0.34746726    14.563477   0.49780722        0.002    4.0045512   0.01038229    76.099503    524.42926 
   57300    615.31206   0.34820535    14.588232   0.49780722        0.002    4.3108479  0.010279415    75.855501    523.27326 
   57400    616.34425   0.34606742     14.61323   0.49780722        0.002    4.2900591  0.010821582    76.332089    522.11058 
   57500     617.3442   0.34665311    14.637075   0.49780722        0.002     4.414307 0.0095601731    76.548396    520.94466 
   57600    618.34793   0.34835708    14.660781   0.49780722        0.002    4.3796963  0.011151541    77.013772    519.77243 
   57700    619.36481   0.34792908     14.68502   0.49780722        0.002    4.5492228  0.010205209    77.548119    518.59321 
   57800     620.3375   0.34824536    14.707686   0.49780722        0.002    4.1343629  0.010789352    74.915182     517.4467 
   57900    621.32679   0.34605977    14.730929   0.49780722        0.002    4.6145727 0.0098390699    75.920858    516.28668 
   58000    622.31523   0.34703944    14.753676   0.49780722        0.002    4.5880421  0.010387173    75.216478    515.13505 
   58100    623.33486   0.34659648    14.776739   0.49780722        0.002    3.9472232  0.010959089    76.350152    513.96857 
   58200    624.35119   0.34679571    14.799764   0.49780722        0.002    4.1967266   0.01022075    76.052794    512.80527 
   58300    625.37093   0.34722583    14.823745   0.49780722        0.002    4.1904922  0.009792191    76.784103     511.6325 
   58400    626.40578   0.34453666    14.847625   0.49780722        0.002    4.0588699  0.010395467    75.883703    510.47029 
   58500    627.39034   0.34696911     14.87013   0.49780722        0.002    4.9337528 0.0096451957    76.492666    509.30011 
   58600    628.39819   0.34679462    14.893049   0.49780722        0.002    3.9288736  0.010440104    76.580989     508.1284 
   58700    629.39322   0.34642467     14.91709   0.49780722        0.002    3.9299174 0.0096004454    77.411191    506.94637 
   58800    630.36782   0.34835975    14.940965   0.49780722        0.002    4.0172936 0.0096862542    75.984952    505.78096 
   58900    631.37451   0.34754093    14.965609   0.49780722        0.002    4.2978957 0.0098829786     76.16506    504.61287 
   59000    632.37058   0.34696139    14.990333   0.49780722        0.002     4.220173 0.0098487606    74.871933    503.46005 
   59100    633.34915   0.34833912    15.014042   0.49780722        0.002    4.3471098  0.009599568    75.971326    502.29323 
   59200     634.3399   0.34618129    15.037878   0.49780722        0.002     4.360198  0.010764219    76.436293    501.12038 
   59300    635.35993   0.34742078    15.061619   0.49780722        0.002    5.3422606 0.0091950104    76.197854    499.94989 
   59400    636.35364   0.34745132    15.084374   0.49780722        0.002    3.9686806  0.010116491    77.543001    498.76337 
   59500    637.36757   0.34696648    15.108311   0.49780722        0.002     3.999552 0.0090961082    75.951998    497.59488 
   59600    638.34881   0.34703182    15.132032   0.49780722        0.002    4.0610561  0.010490709    76.190186    496.42311 
   59700    639.33605   0.34782261     15.15518   0.49780722        0.002       4.2487  0.010446637    75.965795    495.25348 
   59800    640.36007   0.34782628    15.179504   0.49780722        0.002    4.2081901 0.0095974545     76.19802    494.08066 
   59900    641.39941   0.34581337    15.204982   0.49780722        0.002    4.4591904  0.010019731    77.176807    492.89624 
   60000    642.41565   0.34673077    15.229097   0.49780722        0.002    4.8269797  0.010107607    75.471247    491.73096 
   60100    643.42695    0.3476839     15.25399   0.49780722        0.002     4.355315  0.010048254    75.647834     490.5631 
   60200    644.42539   0.34656042    15.277531   0.49780722        0.002     4.052061  0.010504992    75.152758    489.40049 
   60300    645.44486   0.34778945    15.302911   0.49780722        0.002    4.0151044  0.010858735    75.809269    488.22973 
   60400    646.45817   0.34784698    15.328021   0.49780722        0.002    4.4152535 0.0085060801    77.165973    487.04328 
   60500    647.39633   0.34844936    15.351795   0.49780722        0.002    4.0288438  0.010564853    76.061469    485.86875 
   60600    648.41355   0.34854861    15.377219   0.49780722        0.002     4.512054  0.010033862    75.075477    484.70498 
   60700    649.41271   0.34667641    15.401832   0.49780722        0.002    3.9977496  0.010503592    76.254666    483.52733 
   60800    650.44077   0.34812028     15.42663   0.49780722        0.002    4.1231569 0.0097827666    76.551455    482.34595 
   60900    651.42532   0.34879593    15.450922   0.49780722        0.002    4.4803538   0.01012807    76.896637     481.1604 
   61000    652.44989   0.34738299    15.476141   0.49780722        0.002    3.8813435  0.010031108    75.654015    479.98813 
   61100     653.4503   0.34687889    15.501217   0.49780722        0.002    4.0033319  0.010520374    75.661044    478.81529 
   61200    654.49082    0.3459205    15.527868   0.49780722        0.002    3.9488001  0.010448812    76.026602    477.63794 
   61300     655.4672   0.34779397     15.55226   0.49780722        0.002    4.0139436 0.0090823496    75.990624    476.46053 
   61400    656.44903   0.34832129    15.575964   0.49780722        0.002    4.1983626 0.0099877034    77.318763    475.26846 
   61500    657.42394   0.34820296    15.600283   0.49780722        0.002    3.9200892  0.010512083    76.618956    474.08345 
   61600    658.44806   0.34793464    15.625396   0.49780722        0.002    4.0639233  0.010868355    76.576011    472.89851 
   61700    659.47597   0.34787035    15.650451   0.49780722        0.002    4.4872094  0.010208604    76.369225    471.71538 
   61800    660.47659   0.34702776    15.675111   0.49780722        0.002    4.2643862  0.011034555     76.60264    470.52936 
   61900    661.50091   0.34862337    15.699576   0.49780722        0.002    4.0096436  0.010497536    76.445126    469.34462 
   62000    662.48958   0.34713094     15.72306   0.49780722        0.002    3.8839749  0.010865167    75.789845    468.16641 
   62100    663.53101   0.34752356    15.747902   0.49780722        0.002    3.9354284 0.0096711141    75.587209    466.98991 
   62200    664.54468   0.34836435    15.772209   0.49780722        0.002    4.3378945 0.0090899107    76.121877    465.80729 
   62300    665.58412   0.34844723    15.796957   0.49780722        0.002    4.1155373 0.0099648552    76.238684    464.62302 
   62400    666.56779    0.3481787    15.820432   0.49780722        0.002    4.2966782  0.010178379    75.632611    463.44469 
   62500    667.57322   0.34790707    15.844534   0.49780722        0.002    4.0965503  0.010341507    75.718739    462.26499 
   62600    668.56345   0.34786667    15.868781   0.49780722        0.002    4.4561187  0.010343438    75.098759    461.09135 
   62700    669.58641   0.34662655    15.892803   0.49780722        0.002    3.6827863  0.010116024    76.470952      459.903 
   62800    670.58438   0.34854789    15.915794   0.49780722        0.002    4.2082137 0.0093634708    76.476975    458.71421 
   62900    671.55471   0.34838414    15.938198   0.49780722        0.002    4.2739856  0.010405412    76.496293    457.52484 
   63000    672.57363   0.34722075     15.96182   0.49780722        0.002    4.1613158  0.010287341    75.079522    456.34959 
   63100     673.6017   0.34802726    15.985323   0.49780722        0.002    3.9105667  0.011038028    75.969084    455.16472 
   63200    674.63089   0.34683652    16.008295   0.49780722        0.002    3.8481666 0.0086188869    75.906802    453.98006 
   63300    675.61832   0.34624786    16.031852   0.49780722        0.002    3.9536772  0.010164534    76.738488     452.7867 
   63400    676.65011   0.34770616    16.056151   0.49780722        0.002    4.1852317 0.0094916848    76.391925    451.59641 
   63500    677.63552   0.34693803    16.079774   0.49780722        0.002    4.1879306  0.010589348    76.451605    450.40516 
   63600     678.6816    0.3490889    16.104082   0.49780722        0.002     4.066924  0.010090085    76.388002    449.21417 
   63700    679.67567   0.34870327    16.127334   0.49780722        0.002    4.5214198 0.0098702416    76.897525    448.01786 
   63800    680.69548   0.34787984    16.151585   0.49780722        0.002    3.8113395  0.010090336    77.700859     446.8136 
   63900    681.69634   0.34706295    16.176464   0.49780722        0.002    3.9793085  0.010519117    75.936487    445.62597 
   64000    682.70147   0.34663155    16.201705   0.49780722        0.002    4.2983642  0.010495786    76.660379    444.43094 
   64100    683.73154    0.3471709    16.227027   0.49780722        0.002    3.8669583 0.0095159086    76.303135      443.239 
   64200     684.7375   0.34761204    16.251239   0.49780722        0.002    4.2281034 0.0097386376    77.120683    442.03893 
   64300    685.73578   0.34703819    16.275835   0.49780722        0.002    4.4345823 0.0097751045     77.08175    440.83893 
   64400    686.73191   0.34662438    16.300661   0.49780722        0.002    4.0845939 0.0093269485    76.552266    439.64359 
   64500     687.7333   0.34783499    16.325986   0.49780722        0.002    3.9933803  0.011017177    77.574351    438.43843 
   64600    688.76421   0.34658871     16.35188   0.49780722        0.002    4.0221896   0.01077182    76.906338    437.23914 
   64700    689.71911   0.34678539    16.374986   0.49780722        0.002    4.0843034  0.010392864    76.449083    436.04379 
   64800    690.76647   0.34796822    16.400465   0.49780722        0.002    3.7838529  0.010654813    75.943526    434.85282 
   64900    691.78852   0.34810452    16.425154   0.49780722        0.002    4.6647751 0.0090202362    77.252885    433.64939 
   65000    692.78493   0.34677847    16.449863   0.49780722        0.002    4.1782999  0.010420373    75.042515    432.46621 
   65100    693.82986   0.34736173    16.475155   0.49780722        0.002    4.1447422  0.010400136    75.844335    431.27502 
   65200    694.83935   0.34700525    16.499913   0.49780722        0.002    3.5815883  0.011007401    77.361304    430.06964 
   65300    695.89801   0.34771323    16.525681   0.49780722        0.002    4.3891165  0.010650176    75.200349    428.88373 
   65400    696.90194   0.34722316    16.550629   0.49780722        0.002    4.1422866 0.0099013359    75.951131    427.69043 
   65500    697.92904   0.34651634    16.575472   0.49780722        0.002     4.341313  0.010455373    76.225148    426.49426 
   65600    698.93536   0.34714634    16.599156   0.49780722        0.002     5.075915  0.008919474     76.51403    425.29513 
   65700     699.8952   0.34774637    16.621683   0.49780722        0.002    4.5316567  0.010602221    75.911748     424.1011 
   65800    700.91006   0.34715613    16.646002   0.49780722        0.002    4.2032126  0.010222393      77.1708    422.89551 
   65900    701.94058   0.34685975     16.67149   0.49780722        0.002    4.2735568 0.0094072609    76.502251    421.69552 
   66000    702.91824   0.34693948    16.694407   0.49780722        0.002    4.0294856   0.01070053    75.493185    420.50419 
   66100    703.93733   0.34820608    16.719287   0.49780722        0.002    4.1004829  0.010007152    74.279471    419.32357 
   66200    704.91808   0.34653633     16.74293   0.49780722        0.002    3.9794176  0.010856086    76.064076    418.12632 
   66300    705.89031   0.34674478    16.765961   0.49780722        0.002     4.084631  0.010333692    76.169583    416.92779 
   66400    706.92245   0.34621443    16.791094   0.49780722        0.002    4.8754728  0.010253059    76.749329    415.72389 
   66500    707.93858   0.34659672    16.815014   0.49780722        0.002    4.1134086  0.011103377    75.344717    414.53194 
   66600    708.95643   0.34753603    16.838982   0.49780722        0.002    3.9865839  0.010000177    76.695003    413.32786 
   66700    709.96814   0.34722273    16.863336   0.49780722        0.002    4.0665758 0.0092509944    76.881795     412.1219 
   66800    710.96023   0.34780697     16.88688   0.49780722        0.002    3.9148418 0.0095135234    77.162637     410.9133 
   66900    711.96434   0.34585753    16.910752   0.49780722        0.002    3.9814725 0.0098640574    75.572773    409.71793 
   67000    712.99641   0.34557534     16.93541   0.49780722        0.002    4.6056912 0.0089280065     76.01135    408.51842 
   67100    713.98556   0.34699029    16.958654   0.49780722        0.002    4.2235302 0.0090539292    75.082909    407.32654 
   67200    714.99265   0.34628535    16.982369   0.49780722        0.002    4.0452969 0.0099635977    75.810174      406.128 
   67300     716.0099   0.34656499    17.006185   0.49780722        0.002    3.5467814  0.010330761    76.609859    404.92242 
   67400    717.01925   0.34738676    17.030029   0.49780722        0.002    3.7986439 0.0099679331    77.601736    403.70847 
   67500    718.01818   0.34702082    17.053508   0.49780722        0.002    4.6023373  0.010295252     76.52094    402.50307 
   67600    719.02746   0.34683051    17.077371   0.49780722        0.002    3.7803295  0.010188019    76.899175    401.29428 
   67700    720.04466   0.34647823    17.101254   0.49780722        0.002    4.0416384  0.010397984    77.166144    400.08307 
   67800    721.04969   0.34639052    17.125072   0.49780722        0.002    4.2041556   0.01040179    76.944981    398.87339 
   67900    722.06846   0.34626458    17.149136   0.49780722        0.002    4.2321015   0.01088997    77.422394    397.65965 
   68000    723.08289    0.3467822     17.17354   0.49780722        0.002    4.4112296   0.01053364    76.287314    396.45473 
   68100    724.09228   0.34726722    17.197283   0.49780722        0.002    4.6277803 0.0099886878    75.688706    395.25435 
   68200    725.09789    0.3464752    17.222078   0.49780722        0.002     4.871759 0.0094340876    76.937162    394.04362 
   68300    726.08293    0.3458952     17.24559   0.49780722        0.002    4.0971073  0.010187979    76.679061    392.83466 
   68400    727.08602   0.34656494     17.26889   0.49780722        0.002    4.1056533 0.0098687558    76.316658    391.62828 
   68500    728.11505   0.34751036    17.292887   0.49780722        0.002    3.9168039  0.010458971    77.505315    390.41236 
   68600    729.13165   0.34608361    17.316524   0.49780722        0.002    4.0352058  0.010828847    76.973463     389.2003 
   68700    730.17974   0.34665997    17.341108   0.49780722        0.002    4.2363586  0.010028859    76.615261    387.99076 
   68800    731.20134   0.34683065    17.364661   0.49780722        0.002    4.0805346  0.010094953    76.937218    386.77846 
   68900    732.22035   0.34642556    17.388949   0.49780722        0.002    4.3567249  0.010137171    76.563179    385.56877 
   69000    733.21649   0.34697102    17.413185   0.49780722        0.002    4.1136272  0.009326306     75.15661    384.36979 
   69100    734.17192   0.34712623     17.43659   0.49780722        0.002    4.1793763  0.010159807    76.975525    383.15636 
   69200    735.17999   0.34764653    17.460516   0.49780722        0.002     4.396444 0.0098393881    77.301977    381.94025 
   69300    736.20488   0.34578484    17.485016   0.49780722        0.002    4.1484722  0.010211782    77.536034    380.72218 
   69400    737.23605   0.34780114     17.50914   0.49780722        0.002    3.8022674  0.010607117    77.679374    379.50286 
   69500    738.21881   0.34707183    17.532628   0.49780722        0.002    3.8477132  0.010420888    77.358422    378.28568 
   69600    739.26208   0.34753293    17.557281   0.49780722        0.002    3.9354336  0.010292758    76.311715    377.07604 
   69700    740.28686   0.34659252    17.581112   0.49780722        0.002    4.1713184  0.010412814    77.077586    375.86044 
   69800    741.30494   0.34709046    17.605154   0.49780722        0.002    4.2459814  0.010776086    76.901713    374.64589 
   69900    742.34661   0.34663938     17.62964   0.49780722        0.002    4.0700914 0.0093043118    76.365443    373.43503 
   70000     743.3614   0.34688565    17.653815   0.49780722        0.002    4.0534871  0.010732408    76.131424    372.22561 
   70100    744.38282   0.34691082    17.677828   0.49780722        0.002    4.3505454  0.010330055    77.882955     371.0033 
   70200    745.39945   0.34699174    17.702972   0.49780722        0.002    4.1951369  0.010060624    75.657099    369.79684 
   70300    746.39463   0.34545552    17.726629   0.49780722        0.002    4.4538865 0.0094232394     74.84385    368.59613 
   70400     747.3852   0.34663155    17.749566   0.49780722        0.002     3.974553  0.010576851    73.788104    367.40307 
   70500    748.38956   0.34717318     17.77225   0.49780722        0.002     4.043925  0.010060286    74.192844    366.20645 
   70600    749.38005    0.3477864    17.793656   0.49780722        0.002     4.206394 0.0090657806    75.848875    364.99715 
   70700    750.37634   0.34733135     17.81552   0.49780722        0.002    4.2722206 0.0099953057     75.70637    363.78857 
   70800    751.37474   0.34707695    17.837526   0.49780722        0.002    3.9740952 0.0093763673    76.119888    362.57672 
   70900    752.37022    0.3477616    17.859641   0.49780722        0.002    3.7739693  0.010166824    76.580877    361.36133 
   71000    753.36792   0.34522696    17.882174   0.49780722        0.002    4.1187496  0.011300909     75.99039    360.14983 
   71100     754.4172   0.34649024    17.905609   0.49780722        0.002     3.724782 0.0098071344    74.652771    358.94762 
   71200    755.39208   0.34654081    17.927056   0.49780722        0.002    4.2042449  0.010211887    76.017535     357.7353 
   71300    756.39095    0.3465619    17.949269   0.49780722        0.002    4.5973348  0.010068545    76.081323    356.52224 
   71400    757.39582   0.34635354    17.971069   0.49780722        0.002    4.0184494 0.0098468236    75.957417    355.30976 
   71500    758.38678   0.34746503    17.992421   0.49780722        0.002    4.4647661 0.0097482453    76.079653    354.09615 
   71600     759.3613   0.34718974    18.014023   0.49780722        0.002    4.0115252  0.010590849     76.01562    352.88269 
   71700    760.33862   0.34753769    18.035246   0.49780722        0.002    4.4207023  0.010440867    76.336048    351.66677 
   71800    761.33811   0.34629984    18.057171   0.49780722        0.002    3.8894404  0.009692902    75.803981     350.4542 
   71900    762.32913   0.34686935    18.078802   0.49780722        0.002    3.7999561  0.010093691    76.326907     349.2378 
   72000    763.33852    0.3464144    18.100526   0.49780722        0.002    3.9619831 0.0098733267    75.722922     348.0252 
   72100    764.32578   0.34633109    18.122847   0.49780722        0.002    4.1221793  0.010108089    76.710882    346.80572 
   72200    765.34421   0.34561367    18.146227   0.49780722        0.002    4.1918017  0.010404084    76.244907    345.58908 
   72300    766.38177   0.34720712     18.17031   0.49780722        0.002    4.1612397  0.010550529    76.643807    344.36956 
   72400    767.38022   0.34734082    18.192824   0.49780722        0.002    4.2580321  0.010773212    76.603227    343.15006 
   72500    768.37033   0.34726023    18.215238   0.49780722        0.002    4.3548603   0.01037989    75.718862    341.93612 
   72600    769.38506    0.3472842    18.238376   0.49780722        0.002    3.9024595  0.010850343    76.080109    340.71951 
   72700    770.39502   0.34656524     18.26167   0.49780722        0.002    4.4361137  0.010080937    75.295023    339.50778 
   72800    771.40734   0.34737094    18.284786   0.49780722        0.002    4.0519136  0.010284929    76.407609     338.2885 
   72900    772.44591   0.34789189    18.308993   0.49780722        0.002    3.8806834 0.0099737026    76.826578    337.06633 
   73000    773.45252   0.34660186    18.331891   0.49780722        0.002    4.0110775  0.010244891    75.275416    335.85386 
   73100    774.47414   0.34636402    18.355104   0.49780722        0.002    4.0721484  0.010082772    75.947157    334.63674 
   73200    775.49907   0.34662459    18.379062   0.49780722        0.002    4.1564029  0.009459988    76.813226    333.41392 
   73300    776.45796   0.34690089    18.401236   0.49780722        0.002    4.9802712 0.0093673302     76.87613     332.1905 
   73400    777.45177   0.34609793    18.424463   0.49780722        0.002    4.4145545 0.0098977507    76.412175    330.96973 
   73500     778.4763   0.34711232    18.448274   0.49780722        0.002    4.4317046 0.0099363948    75.646047    329.75349 
   73600     779.5086   0.34627708    18.472011   0.49780722        0.002    4.1057832  0.010646764    77.172291    328.52759 
   73700    780.50175    0.3469518    18.495166   0.49780722        0.002    4.3309402  0.010516694    76.599772    327.30496 
   73800     781.4881   0.34559135    18.517435   0.49780722        0.002    4.2517914  0.010060379    76.078605    326.08528 
   73900    782.50912   0.34743416    18.540608   0.49780722        0.002    4.3547469 0.0098654228    77.711483    324.85559 
   74000    783.51302   0.34666801    18.563546   0.49780722        0.002    4.2112476 0.0097612208    75.851358    323.63683 
   74100    784.51367   0.34723483    18.586516   0.49780722        0.002     3.856308 0.0098274946    74.773507    322.42444 
   74200    785.51693   0.34734603    18.609668   0.49780722        0.002    3.9758922  0.010330952    74.409917    321.21399 
   74300    786.50987   0.34699861    18.631862   0.49780722        0.002    4.2618884 0.0097194426    76.872861    319.98829 
   74400    787.54267   0.34768848    18.654438   0.49780722        0.002    3.9926499  0.010126742    76.214233    318.76625 
   74500    788.57233   0.34747703    18.677588   0.49780722        0.002    4.0352112 0.0099795061    75.731125    317.54684 
   74600    789.62814   0.34705269    18.701024   0.49780722        0.002     4.272441  0.010618036    75.376184    316.32927 
   74700    790.66937   0.34855604    18.724039   0.49780722        0.002    4.5873373 0.0099997944    73.478729    315.12302 
   74800    791.70545   0.34718656    18.746953   0.49780722        0.002    3.8851553  0.010707705    74.612228    313.90938 
   74900    792.72578   0.34851231     18.76982   0.49780722        0.002    4.0641139  0.010176344    75.455756    312.69039 
   75000    793.74957   0.34710223    18.792413   0.49780722        0.002    4.3137737  0.010839185    75.527157    311.47069 
   75100    794.76247   0.34720811    18.815335   0.49780722        0.002    4.2860622 0.0094034506    75.072938    310.25337 
   75200     795.7755   0.34724277    18.838397   0.49780722        0.002    3.6939884  0.010971467    76.490546    309.02761 
   75300    796.81576   0.34709543    18.862064   0.49780722        0.002    4.0011014  0.010541008    75.746552    307.80584 
   75400    797.84267   0.34559484    18.885145   0.49780722        0.002    3.7684541 0.0099412246    74.417165    306.59151 
   75500    798.83044   0.34697904    18.906825   0.49780722        0.002    4.3482869 0.0098400337    72.711463    305.38706 
   75600    799.86084   0.34760491    18.930068   0.49780722        0.002    4.1549707 0.0094609449    73.409964    304.17793 
   75700    800.83421   0.34640119    18.952089   0.49780722        0.002    4.1906983   0.01068438    74.051193    302.96462 
   75800    801.85232   0.34670038     18.97482   0.49780722        0.002    4.3603879 0.0099432796    73.699575      301.753 
   75900    802.82735    0.3471048    18.996431   0.49780722        0.002     4.700918  0.010386025    73.595217    300.54161 
   76000    803.86137   0.34680338    19.018769   0.49780722        0.002    3.9352404  0.010509602    74.257852      299.326 
   76100    804.85163   0.34713351    19.040432   0.49780722        0.002    4.4259429  0.010655625    75.550149    298.10281 
   76200    805.87914   0.34656632    19.062717   0.49780722        0.002    3.8192786  0.010117855    76.821329    296.87252 
   76300    806.90925   0.34559224    19.084809   0.49780722        0.002    4.2706858 0.0099085948    76.836542    295.64196 
   76400    807.92441   0.34777891    19.106196   0.49780722        0.002    4.3058147  0.010505449     76.23479    294.41439 
   76500    808.91642   0.34646916    19.127476   0.49780722        0.002     4.473171  0.010075507    76.920766      293.183 
   76600    809.92309   0.34783162    19.148579   0.49780722        0.002    4.1795208  0.010925467    76.951969    291.95128 
   76700    810.92706   0.34722678    19.169962   0.49780722        0.002    4.2529362 0.0097409462    77.178412    290.71822 
   76800     811.9443   0.34668035    19.191473   0.49780722        0.002      4.38062  0.010124251    77.079668     289.4855 
   76900    812.96812   0.34722741    19.212418   0.49780722        0.002    4.5913813 0.0093802474    76.919356    288.25342 
   77000    813.93968   0.34745916    19.232586   0.49780722        0.002    4.7374534   0.00974055    76.225494     287.0247 
   77100    814.94083   0.34783262    19.252369   0.49780722        0.002    4.4817638 0.0093890457    75.323446    285.80043 
   77200    815.95223   0.34589997    19.273516   0.49780722        0.002    4.1723241 0.0096713112    76.847467    284.56812 
   77300     816.9455   0.34678709    19.294218   0.49780722        0.002    4.2928232  0.010123557    76.200346    283.33887 
   77400    817.95309   0.34819513    19.315543   0.49780722        0.002    4.0897148   0.01040554    77.050683    282.10518 
   77500    818.97247   0.34832367    19.336877   0.49780722        0.002    4.2776564  0.010085001    76.453542    280.87427 
   77600    819.99922   0.34625451     19.35953   0.49780722        0.002    4.2216661  0.010239471    76.811228     279.6414 
   77700    821.01352   0.34676859    19.381236   0.49780722        0.002     4.312811  0.010303723    75.931689    278.41269 
   77800    821.97931   0.34644278    19.402426   0.49780722        0.002    4.5815897  0.010257584    76.597715    277.18047 
   77900     822.9939   0.34530978    19.424158   0.49780722        0.002    3.7641447  0.010118097    76.959255    275.94633 
   78000    823.98361   0.34715999    19.445106   0.49780722        0.002    4.3678967 0.0096961961    75.281306    274.72019 
   78100    825.02496   0.34662424    19.467474   0.49780722        0.002    3.7852508 0.0099672883    75.931868     273.4906 
   78200    826.04248   0.34659483    19.489479   0.49780722        0.002    4.3538784 0.0099745088    77.119265    272.25513 
   78300    827.05176   0.34676099    19.511293   0.49780722        0.002    4.3820244 0.0099182177    75.891873    271.02532 
   78400    828.04889    0.3464207    19.532245   0.49780722        0.002    4.1894655  0.010019246    76.419888    269.79277 
   78500    829.07384   0.34757916    19.553722   0.49780722        0.002     4.016406  0.010063787     76.07779    268.56164 
   78600    830.09011   0.34814524    19.575747   0.49780722        0.002    4.0506209  0.010542201    76.556667    267.32807 
   78700    831.12005   0.34820074    19.597951   0.49780722        0.002    4.4219938 0.0095605252    75.205729    266.10065 
   78800     832.1316   0.34684932    19.619572   0.49780722        0.002    4.5688643 0.0094335773    75.092158    264.87352 
   78900    833.14805   0.34582483    19.641902   0.49780722        0.002    4.1570781 0.0097803151    76.462239    263.63975 
   79000    834.14264   0.34707999    19.663247   0.49780722        0.002    4.1152791  0.010728745    76.154675    262.40719 
   79100    835.15833   0.34694476    19.685005   0.49780722        0.002    4.5317528  0.010229836    75.591391    261.17701 
   79200    836.12788   0.34659163    19.705695   0.49780722        0.002    4.0681189  0.009682967    77.180499    259.93944 
   79300    837.13867   0.34692124    19.728181   0.49780722        0.002    3.9568987 0.0093989253    76.855986    258.70316 
   79400    838.14254   0.34717358    19.749856   0.49780722        0.002    4.1638399  0.010508559    76.732831    257.46725 
   79500    839.13549   0.34614982    19.771336   0.49780722        0.002    4.5873407  0.010222015    76.607747    256.23172 
   79600    840.10337   0.34718304    19.792089   0.49780722        0.002    4.6050348  0.010190165     72.14201    255.01673 
   79700    841.11198   0.34642849    19.814619   0.49780722        0.002    3.6152781  0.010471274    70.483383    253.80961 
   79800    842.16742   0.34686193    19.837487   0.49780722        0.002     4.110981  0.010602915    69.993609    252.60448 
   79900    843.18889   0.34837163    19.859232   0.49780722        0.002    4.4625156  0.010186707    71.021717    251.39358 
   80000     844.1869   0.34722795    19.881624   0.49780722        0.002    4.3711655 0.0096569201    70.588314    250.18436 
   80100    845.19796   0.34590863    19.903649   0.49780722        0.002    4.3746648  0.010650774    70.122095    248.97695 
   80200    846.23427   0.34785322    19.926347   0.49780722        0.002    4.1164852  0.009822044    70.971664    247.76479 
   80300    847.24563   0.34653813    19.948592   0.49780722        0.002    4.0648183  0.010634444    70.110748    246.55638 
   80400    848.27275   0.34547016    19.971275   0.49780722        0.002    4.3325676  0.010164435     69.81504     245.3489 
   80500    849.26596   0.34599984    19.993606   0.49780722        0.002    4.1174934  0.010937204    69.871435    244.14058 
   80600    850.27803   0.34594876    20.016097   0.49780722        0.002    3.9708852  0.010051844    69.966626    242.93124 
   80700    851.28322   0.34826853    20.038296   0.49780722        0.002    4.5525883  0.010191518     69.95008    241.72144 
   80800    852.28912   0.34682319    20.060109   0.49780722        0.002     4.051019  0.010849196    69.908947    240.51129 
   80900     853.3134   0.34682338    20.082357   0.49780722        0.002    4.2262815 0.0097846076    70.194302    239.29922 
   81000    854.32153   0.34718957     20.10487   0.49780722        0.002    3.9151755  0.009791602    69.318276    238.09086 
   81100     855.3527   0.34841204    20.128356   0.49780722        0.002    4.4048234  0.010440494    68.863551    236.88413 
   81200    856.38033   0.34703152    20.150655   0.49780722        0.002    4.1930257  0.011142475    70.536438    235.66883 
   81300    857.41728   0.34683091    20.174381   0.49780722        0.002    4.2648065 0.0097255555    69.057342    234.46001 
   81400    858.41989   0.34666936    20.196816   0.49780722        0.002    4.0036215   0.01105224     69.32452    233.24933 
   81500    859.43076   0.34683107    20.219667   0.49780722        0.002    4.3324962  0.010157551    70.138523    232.03428 
   81600    860.45404    0.3473104     20.24224   0.49780722        0.002     3.798723 0.0096474396    69.315584    230.82253 
   81700    861.41689   0.34586777     20.26404   0.49780722        0.002    3.8448591  0.010490393    70.209836     229.6061 
   81800    862.46317   0.34733013     20.28709   0.49780722        0.002    3.9369683  0.010560755    70.908601    228.38604 
   81900    863.48824   0.34625675    20.310258   0.49780722        0.002    4.1984481  0.010284812    69.472818    227.17196 
   82000    864.48298   0.34573429     20.33286   0.49780722        0.002    4.9578986  0.009940136      69.1374    225.95886 
   82100    865.50575   0.34633183    20.355401   0.49780722        0.002    3.7874516 0.0099133079      74.5651    224.72223 
   82200    866.53411   0.34769558       20.378   0.49780722        0.002      4.67059 0.0098588273    76.384162    223.47844 
   82300    867.53302   0.34690831    20.400217   0.49780722        0.002    4.6535469 0.0095968244    76.421043    222.23435 
   82400    868.56727   0.34785645    20.422936   0.49780722        0.002    4.5398043 0.0098120605    75.961296     220.9918 
   82500    869.59352   0.34695728    20.447471   0.49780722        0.002    4.3459411  0.010387941    76.108658    219.74852 
   82600    870.62778   0.34659816    20.471342   0.49780722        0.002    3.8130313  0.010045615    76.338563    218.50425 
   82700    871.63816   0.34875167    20.493996   0.49780722        0.002     4.261329 0.0097881212    75.346192    217.26342 
   82800    872.63339   0.34590608    20.517034   0.49780722        0.002    4.3201257 0.0094839964    76.484227    216.01828 
   82900    873.63289   0.34631496    20.538773   0.49780722        0.002    4.2830592 0.0098727577    75.688665    214.77582 
   83000    874.66285   0.34665061    20.562119   0.49780722        0.002    4.0873972  0.011112102    75.285441    213.53463 
   83100    875.70271   0.34735519    20.585804   0.49780722        0.002     3.827206  0.010167806    75.728664    212.29164 
   83200    876.71923     0.346794    20.608537   0.49780722        0.002    4.7293058  0.010092258    76.839611    211.04462 
   83300    877.74907   0.34726768    20.632219   0.49780722        0.002    4.5836883  0.010185395    77.214827    209.79619 
   83400    878.78253   0.34759662    20.656226   0.49780722        0.002    4.6739732 0.0088216404     76.19629     208.5511 
   83500    879.76267   0.34655847    20.679587   0.49780722        0.002    3.9599457  0.010844551    77.148472    207.30265 
   83600    880.77565   0.34744359    20.703672   0.49780722        0.002    4.5369536  0.010535144    76.077321    206.05766 
   83700    881.78366   0.34797076    20.727714   0.49780722        0.002    4.0442527 0.0099105069    76.200982    204.81209 
   83800    882.75473   0.34763797    20.750838   0.49780722        0.002    3.6793776 0.0099385627    77.076113    203.56348 
   83900     883.7418   0.34764706    20.774029   0.49780722        0.002    4.2423982 0.0099019994    76.995096    202.31502 
   84000    884.73435   0.34674039    20.796636   0.49780722        0.002    4.2720323   0.01034716    74.166042    201.07587 
   84100    885.73794   0.34701153    20.819762   0.49780722        0.002    3.6172527  0.011132835    77.023374    199.82701 
   84200    886.75107   0.34756456    20.843494   0.49780722        0.002    4.1805967  0.009490856    76.603703    198.57937 
   84300     887.7346   0.34745435    20.866626   0.49780722        0.002     4.391287 0.0099003179    76.246418    197.33272 
   84400     888.7461   0.34762147     20.89025   0.49780722        0.002    4.0759146  0.010711011    73.664226    196.09442 
   84500    889.76792   0.34667697    20.913942   0.49780722        0.002    4.4678416  0.010167164     77.07937    194.84481 
   84600    890.76826   0.34609702    20.937462   0.49780722        0.002    4.2145203  0.010356412    76.890674    193.59566 
   84700    891.79601   0.34658521    20.961278   0.49780722        0.002    4.6071127 0.0098809495    76.274967    192.34829 
   84800    892.80267   0.34711092    20.984784   0.49780722        0.002    4.5066248 0.0097619635    76.186186    191.10104 
   84900    893.78351   0.34778031    21.008039   0.49780722        0.002    4.5701566 0.0097865607    75.136899     189.8569 
   85000    894.77468   0.34793952     21.03151   0.49780722        0.002    4.7538187  0.010386586    75.236109    188.61224 
   85100    895.77843   0.34815219    21.054363   0.49780722        0.002    4.4748319  0.009081697    75.769281    187.36575 
   85200    896.75098   0.34673968    21.076218   0.49780722        0.002    3.9241609 0.0098191123    76.389059    186.11722 
   85300    897.77393   0.34680721    21.099781   0.49780722        0.002    4.1166695  0.010178453    76.436182    184.86842 
   85400     898.7497   0.34683262    21.122521   0.49780722        0.002    4.7246578  0.010495297    76.641973    183.61887 
   85500    899.72465   0.34728198    21.144776   0.49780722        0.002    3.9536837 0.0088912053    77.013418    182.36813 
   85600    900.70577   0.34610114    21.166444   0.49780722        0.002    4.1931224 0.0098790266    76.396767    181.11904 
   85700    901.73354    0.3469507    21.188938   0.49780722        0.002    4.0256673 0.0089681329    76.138099    179.87055 
   85800    902.74667   0.34604535    21.211116   0.49780722        0.002    3.9886994 0.0096438034    76.166208    178.62183 
   85900    903.73252    0.3473648    21.232262   0.49780722        0.002    4.2643012 0.0097533694    77.352744    177.36965 
   86000    904.71135     0.346251    21.254818   0.49780722        0.002    4.0934481   0.01005364    75.220835    176.12335 
   86100    905.71523   0.34645101    21.277612   0.49780722        0.002    4.2353596   0.01023639    76.382576    174.87359 
   86200    906.70514   0.34861115    21.299743   0.49780722        0.002    4.3252364  0.010476243    76.149227    173.62433 
   86300    907.70347   0.34738271    21.322372   0.49780722        0.002      4.12989 0.0093801291    76.416616    172.37419 
   86400    908.69232   0.34787823    21.344125   0.49780722        0.002    4.1585689  0.010308672    76.661654    171.12326 
   86500    909.73161   0.34856777    21.367134   0.49780722        0.002    3.9337794  0.010345987     75.81708    169.87448 
   86600    910.73299   0.34686112    21.389384   0.49780722        0.002    4.1317809  0.011076586     75.85406    168.62543 
   86700     911.7402   0.34760018    21.411827   0.49780722        0.002    3.7454419  0.009324819    76.849776    167.37361 
   86800     912.7497   0.34670776    21.434898   0.49780722        0.002    3.8720169  0.010241063    76.111324    166.12359 
   86900    913.73024   0.34715869    21.456716   0.49780722        0.002    4.8320474   0.01033211    76.351792    164.87279 
   87000    914.74783   0.34685582    21.479197   0.49780722        0.002    3.9412672  0.010368993     75.30596    163.62458 
   87100    915.76762   0.34664034    21.502658   0.49780722        0.002    4.2096742    0.0112771    75.471818    162.37576 
   87200    916.80285   0.34673784    21.526307   0.49780722        0.002    4.3283683 0.0094923954    76.396113    161.12441 
   87300     917.8005   0.34799061    21.548407   0.49780722        0.002    3.7181325  0.010903571    76.660085    159.87227 
   87400    918.81686   0.34762103     21.57119   0.49780722        0.002    4.0991787 0.0097936981    76.561936    158.62025 
   87500    919.81797   0.34794471    21.592919   0.49780722        0.002    4.0207409 0.0092743583    76.845749    157.36742 
   87600    920.82579    0.3479548    21.614656   0.49780722        0.002    3.8408419   0.01080845    76.024121    156.11647 
   87700    921.88382   0.34725131    21.637833   0.49780722        0.002    4.0213201  0.010378819     75.63553    154.86632 
   87800    922.91841    0.3473781    21.659836   0.49780722        0.002    4.5236313  0.010617762    76.359729    153.61426 
   87900    923.94988   0.34720338    21.681969   0.49780722        0.002    3.9951365  0.009476951    75.969593      152.363 
   88000    924.92572   0.34702152    21.702545   0.49780722        0.002     4.163317  0.010493163    74.405707    151.11536 
   88100     925.9464    0.3473447    21.724948   0.49780722        0.002    4.2386481  0.010220477    76.452483    149.86265 
   88200     926.9625   0.34690844    21.746887   0.49780722        0.002    4.2217492 0.0094550433    75.612309    148.61175 
   88300    927.97682   0.34766245    21.768484   0.49780722        0.002    3.8740389  0.011138002    76.170399    147.35941 
   88400    928.99973   0.34629531    21.789472   0.49780722        0.002     4.133974 0.0099369153    75.737826    146.10791 
   88500    930.00363   0.34587182    21.809685   0.49780722        0.002    4.3774725  0.010248628    76.204997    144.85521 
   88600     931.0089   0.34601312    21.830315   0.49780722        0.002     4.294753  0.010734563    75.939773    143.60296 
   88700    932.02787   0.34799642    21.851961   0.49780722        0.002    4.0964528  0.010605889    75.977161    142.35049 
   88800    933.02735   0.34680729    21.872717   0.49780722        0.002    4.5632266 0.0097465718    76.561181     141.0966 
   88900    934.06047   0.34610625    21.894174   0.49780722        0.002    4.1788077 0.0091988421    76.020994    139.84375 
   89000    935.07996   0.34664878    21.914996   0.49780722        0.002    4.1575405  0.010845706    76.009394    138.59079 
   89100     936.0948   0.34760591     21.93522   0.49780722        0.002    4.1484618  0.009833416    75.800529    137.33814 
   89200     937.1284   0.34701864    21.957121   0.49780722        0.002    3.9587594  0.010291485    76.697177    136.08346 
   89300    938.15079   0.34775191    21.978704   0.49780722        0.002    4.3042733  0.011059502    75.726299    134.83068 
   89400    939.19305    0.3479034    22.000768   0.49780722        0.002    4.0667002  0.010390556    76.398395    133.57637 
   89500     940.2493   0.34649693    22.023399   0.49780722        0.002    4.9784885 0.0095481661    75.151587    132.32449 
   89600    941.24838   0.34732677     22.04408   0.49780722        0.002    4.2678625 0.0097171119    76.632759    131.06944 
   89700    942.25394   0.34860817    22.065053   0.49780722        0.002    4.1477617  0.010548733    75.556545    129.81642 
   89800    943.23814   0.34665542    22.086438   0.49780722        0.002     3.937297  0.010749009    75.374315     128.5636 
   89900    944.25301   0.34727579     22.10698   0.49780722        0.002    4.0159308    0.0108808    76.389643    127.30864 
   90000    945.27877    0.3487732    22.128361   0.49780722        0.002    3.8426686  0.010653682    75.364821    126.05554 
   90100    946.34699   0.34702316    22.152124   0.49780722        0.002    3.9324269 0.0099070723    74.923037    124.80313 
   90200    947.37835   0.34796803    22.174869   0.49780722        0.002    3.9736205  0.010774472    76.000593    123.54848 
   90300    948.39495   0.34928315    22.197481   0.49780722        0.002    4.3302196  0.010564368    76.383522    122.29299 
   90400    949.38173   0.34869334    22.219246   0.49780722        0.002    3.9223466    0.0104431    76.062462    121.03797 
   90500    950.39503   0.34636001    22.241336   0.49780722        0.002    3.9295416  0.010388757    75.609215    119.78364 
   90600    951.42774   0.34766628    22.264337   0.49780722        0.002    4.6906953   0.00998078    76.775853    118.52708 
   90700     952.4458   0.34780195    22.287775   0.49780722        0.002    4.6944879 0.0095677293    75.872928      117.272 
   90800    953.44773   0.34783877    22.310454   0.49780722        0.002    4.4596063  0.010273086    75.530476    116.01739 
   90900    954.48082   0.34828048    22.334202   0.49780722        0.002    4.1416851  0.010833238    74.920053    114.76371 
   91000    955.52915   0.34750798     22.35876   0.49780722        0.002    4.1071659 0.0099490669    75.240307    113.50929 
   91100    956.55598   0.34654862    22.382144   0.49780722        0.002    4.2716657  0.010149928    75.634384    112.25403 
   91200    957.57118   0.34869596    22.405012   0.49780722        0.002    3.9722805  0.010783907    77.451645    110.99563 
   91300    958.57934   0.34746877    22.428073   0.49780722        0.002    4.5043425   0.01048407     76.83543    109.73814 
   91400    959.59049   0.34810705    22.451716   0.49780722        0.002    4.4666367  0.010730701    76.168546    108.48163 
   91500    960.62876   0.34776539    22.475918   0.49780722        0.002    4.3121212  0.010967703    76.135073    107.22505 
   91600    961.66121   0.34814072    22.499339   0.49780722        0.002    4.2971429 0.0099444198    76.444122    105.96786 
   91700    962.66989   0.34823295    22.522069   0.49780722        0.002    4.0569754  0.010682927     77.40802    104.70909 
   91800    963.69038   0.34680512    22.546511   0.49780722        0.002    3.9033737 0.0096052662    75.795118    103.45269 
   91900    964.71218   0.34835691    22.569702   0.49780722        0.002    4.3651422  0.010329583     75.89488    102.19601 
   92000    965.73193   0.34821504    22.592977   0.49780722        0.002     3.975547  0.010164261     75.16135    100.94031 
   92100    966.69573   0.34903184    22.614847   0.49780722        0.002     4.027702  0.010229366    75.674736    99.683679 
   92200    967.70915   0.34908438     22.63731   0.49780722        0.002    4.0090411  0.010610362    76.226602    98.426095 
   92300     968.7137   0.34815701    22.659404   0.49780722        0.002    4.3943906  0.010007256    76.138155    97.168521 
   92400    969.73036   0.34696633    22.681612   0.49780722        0.002     3.722855  0.010228826    75.344893    95.911963 
   92500     970.7661   0.34720625    22.704669   0.49780722        0.002     4.279164 0.0095762665    76.394137    94.653775 
   92600    971.78544   0.34679246    22.727346   0.49780722        0.002    4.3767526  0.010217232    75.945011    93.396095 
   92700     972.8112   0.34789558    22.749827   0.49780722        0.002    4.5392754 0.0093682265     76.20436    92.137935 
   92800    973.81428   0.34871522    22.771509   0.49780722        0.002    4.3113316  0.010517467    76.816658    90.878847 
   92900    974.80723   0.34758171    22.793132   0.49780722        0.002    3.9714381  0.010208748    76.094339    89.620611 
   93000    975.81461   0.34685338    22.814651   0.49780722        0.002     3.749832  0.010203108    75.689457    88.362784 
   93100    976.82444   0.34726842    22.837541   0.49780722        0.002    4.0500429  0.010331759    75.583572    87.104958 
   93200    977.80309   0.34781617    22.860037   0.49780722        0.002    4.1846763  0.010289269    76.292421    85.846096 
   93300    978.82881   0.34753031    22.884449   0.49780722        0.002    3.9614601   0.01016641    76.116365     84.58734 
   93400    979.83945   0.34789467    22.907291   0.49780722        0.002    4.0094724 0.0097211948    76.008815    83.328597 
   93500    980.84048   0.34587181    22.930479   0.49780722        0.002    4.3675774  0.010504763    75.934974    82.069822 
   93600    981.86936   0.34590502    22.953794   0.49780722        0.002    4.0306852  0.010546234     75.44027    80.811513 
   93700    982.90107   0.34695242    22.976742   0.49780722        0.002    4.5484321  0.010211503    76.628181    79.551678 
   93800    983.87822   0.34668929    22.998021   0.49780722        0.002      4.06739 0.0096615912    75.833009    78.292652 
   93900    984.89298   0.34746057    23.021416   0.49780722        0.002    4.5893725 0.0098799058    77.679316    77.031463 
   94000     985.8259   0.34630341    23.043188   0.49780722        0.002    4.2632067   0.01040257    75.411596    75.772689 
   94100    986.80314   0.34640508    23.065509   0.49780722        0.002    4.1789698 0.0099300452    75.852332    74.513289 
   94200     987.8161   0.34711343     23.08773   0.49780722        0.002    3.9781688  0.010553164     75.98692     73.25362 
   94300    988.85761   0.34722431    23.112204   0.49780722        0.002    4.0544363  0.010660604     76.29918    71.993506 
   94400    989.87128   0.34745326     23.13602   0.49780722        0.002    4.2577526  0.010453194    75.882097    70.733712 
   94500    990.89568   0.34737429    23.160065   0.49780722        0.002    4.0026434  0.010135787    76.421684    69.473254 
   94600    991.92358   0.34667528    23.183301   0.49780722        0.002    4.4842454 0.0099085704    76.169652    68.212942 
   94700    992.93467   0.34735866    23.207045   0.49780722        0.002    5.0105728 0.0094647748    75.475675    66.953194 
   94800     993.9373   0.34716086    23.230061   0.49780722        0.002    4.1227612  0.010067072    77.025171    65.691846 
   94900    994.92211    0.3471534    23.253112   0.49780722        0.002    4.6792662  0.010170831    76.319852    64.431066 
   95000    995.91424   0.34667395    23.276842   0.49780722        0.002    4.6722443 0.0099466033    75.437882    63.170987 
   95100    996.87252   0.34759007    23.300266   0.49780722        0.002    4.4534222  0.010309079    76.065814    61.910207 
   95200     997.9038   0.34651575    23.325036   0.49780722        0.002    4.1864101  0.010851672    76.106683    60.649278 
   95300    998.91563   0.34762909    23.349126   0.49780722        0.002     4.096078  0.010011712    77.050216    59.387445 
   95400    999.96627   0.34767379    23.373809   0.49780722        0.002    3.7954812 0.0098481885    75.188594    58.127085 
   95500    1000.9782   0.34751697    23.397635   0.49780722        0.002    4.0692286  0.011037621    76.738376    56.865314 
   95600    1001.9874   0.34857979    23.421619   0.49780722        0.002    4.1990758  0.009051196    76.291671    55.603807 
   95700     1002.965   0.34615165    23.444921   0.49780722        0.002    4.4750371 0.0092303024    76.746436    54.341849 
   95800    1003.9221   0.34754299    23.468022   0.49780722        0.002    4.0554981  0.010432811     76.00102    53.080365 
   95900    1004.9541   0.34896769    23.493333   0.49780722        0.002     4.182947  0.010007642    76.073444    51.818714 
   96000    1005.9491   0.34798296    23.517501   0.49780722        0.002    4.0602866 0.0092350246    75.468056    50.557393 
   96100    1006.9336   0.34715102    23.541073   0.49780722        0.002    4.1844946  0.010963288    76.502893    49.295212 
   96200    1007.9474   0.34834421    23.565176   0.49780722        0.002    4.5784445 0.0093837041    75.679719    48.033498 
   96300    1008.9312   0.34709277    23.588919   0.49780722        0.002    4.8081252 0.0099571821     76.40914    46.771176 
   96400    1009.9228   0.34784263    23.612681   0.49780722        0.002    4.5501166 0.0091742163    75.430136    45.509393 
   96500    1010.9255   0.34778302    23.636015   0.49780722        0.002    4.3810703 0.0099883048    75.710374    44.247298 
   96600    1011.8948   0.34731447    23.658553   0.49780722        0.002    4.7115839 0.0096243226     76.28243    42.984734 
   96700    1012.9313   0.34837024    23.682971   0.49780722        0.002    3.7796221  0.011078977    76.353238    41.722028 
   96800    1013.9628   0.34756554    23.708323   0.49780722        0.002    3.7966959  0.011074124     75.97434    40.459441 
   96900    1014.9604   0.35050326    23.731754   0.49780722        0.002    4.1473763 0.0099635294    76.063787    39.196693 
   97000    1015.9648   0.34860034    23.755784   0.49780722        0.002    4.4666001 0.0098780215    74.935218    37.934451 
   97100    1016.9862    0.3478517    23.779864   0.49780722        0.002    4.2315142 0.0099285287     75.76653    36.671623 
   97200    1017.9714   0.34762812    23.802864   0.49780722        0.002    3.7784746 0.0097231587    76.870452    35.408131 
   97300    1018.9472    0.3480977    23.826042   0.49780722        0.002    4.1935435  0.010013838    75.139887    34.145394 
   97400    1019.9351   0.34597025    23.849058   0.49780722        0.002     4.525907 0.0099939098    76.560943    32.881858 
   97500    1020.9383   0.34543399      23.8726   0.49780722        0.002    4.3465533 0.0095062451    76.137699     31.61842 
   97600    1021.9679   0.34784257    23.896161   0.49780722        0.002    3.8679628  0.010483094    76.658067    30.354661 
   97700    1022.9926   0.34524601     23.92035   0.49780722        0.002    4.2308551  0.010433504     76.11602    29.091037 
   97800    1023.9831   0.34673037    23.942794   0.49780722        0.002    4.0767266  0.010534777     76.20569    27.827276 
   97900    1024.9961   0.34738294    23.965427   0.49780722        0.002    4.0561798 0.0097136012    76.429273    26.563334 
   98000    1026.0302   0.34628184    23.989111   0.49780722        0.002    4.5872992  0.010258749    75.072037    25.299783 
   98100     1027.034    0.3469894    24.010974   0.49780722        0.002    4.0931892 0.0091730699     76.03869    24.035765 
   98200    1028.0663   0.34565457    24.034186   0.49780722        0.002    4.2815965  0.010178329    76.906281    22.771371 
   98300    1029.0778   0.34568375    24.057268   0.49780722        0.002    3.9976569  0.010101363    76.544065     21.50701 
   98400    1030.0624   0.34609644     24.08005   0.49780722        0.002    4.3495553 0.0099026836    75.094739    20.242973 
   98500    1031.0719   0.34725017    24.102969   0.49780722        0.002    4.0640586  0.010065583     77.76909    18.978102 
   98600    1032.0872   0.34681478    24.126868   0.49780722        0.002    4.2178999  0.010347738    76.730655    17.713436 
   98700    1033.0965   0.34641067    24.149717   0.49780722        0.002    4.4541363  0.010038226    75.553183    16.448959 
   98800    1034.0883   0.34623709    24.172596   0.49780722        0.002    4.4502579  0.010150797    76.745678    15.184112 
   98900    1035.0864   0.34594685    24.195076   0.49780722        0.002    3.9324684  0.010157674    75.924665    13.919345 
   99000    1036.0836   0.34666518     24.21655   0.49780722        0.002    3.7685166  0.010381812    73.880568     12.65484 
   99100    1037.1014   0.34546615    24.238228   0.49780722        0.002    4.1531106  0.010537592    77.080504    11.389646 
   99200     1038.103   0.34510656    24.260012   0.49780722        0.002    4.1818124  0.010694916    76.532696    10.124461 
   99300    1039.1334   0.34573321    24.281496   0.49780722        0.002    3.9951236  0.010418804    75.810982    8.8592806 
   99400    1040.1827     0.347066    24.303996   0.49780722        0.002    4.1445043   0.01012413    77.118613    7.5938567 
   99500    1041.2089   0.34597566    24.325864   0.49780722        0.002    3.9466019  0.010719454      75.9501    6.3284703 
   99600    1042.2561   0.34542159    24.347851   0.49780722        0.002    4.5048773 0.0098314658    76.414736    5.0629487 
   99700    1043.2624   0.34585079    24.369777   0.49780722        0.002     3.895701  0.010646504    76.468847    3.7973379 
   99800    1044.3078   0.34596326    24.392687   0.49780722        0.002    4.5544412  0.010088105    76.246944    2.5316503 
   99900    1045.3077   0.34755576    24.414384   0.49780722        0.002    4.6254252  0.010253519    76.405632    1.2658682 
  100000    1046.3426   0.34720964    24.436437   0.49780722        0.002    5.5453171 0.0086965696    76.846059            0 
Loop time of 1265.9 on 4 procs for 100000 steps with 195811 atoms

Performance: 59355.516 tau/day, 78.995 timesteps/s
218.8% CPU use with 1 MPI tasks x 4 OpenMP threads

MPI task timing breakdown:
Section |  min time  |  avg time  |  max time  |%varavg| %total
---------------------------------------------------------------
Pair    | 406.86     | 406.86     | 406.86     |   0.0 | 32.14
Neigh   | 19.196     | 19.196     | 19.196     |   0.0 |  1.52
Comm    | 138.03     | 138.03     | 138.03     |   0.0 | 10.90
Output  | 3.7266     | 3.7266     | 3.7266     |   0.0 |  0.29
Modify  | 620.42     | 620.42     | 620.42     |   0.0 | 49.01
Other   |            | 77.67      |            |       |  6.14

Nlocal:    195811 ave 195811 max 195811 min
Histogram: 1 0 0 0 0 0 0 0 0 0
Nghost:    67125 ave 67125 max 67125 min
Histogram: 1 0 0 0 0 0 0 0 0 0
Neighs:    0 ave 0 max 0 min
Histogram: 1 0 0 0 0 0 0 0 0 0

Total # of neighbors = 0
Ave neighs/atom = 0
Neighbor list builds = 28189
Dangerous builds = 0

Please see the log.cite file for references relevant to this simulation

Total wall time: 0:22:00
