#package gpu 1
#suffix gpu
#variable rho equal 0.05

units lj
atom_style atomic

lattice fcc 0.975
Lattice spacing in x,y,z = 1.60085 1.60085 1.60085
region box block 0 60 0 30 0 30
create_box 2 box
Created orthogonal box = (0 0 0) to (96.0513 48.0256 48.0256)
  1 by 1 by 1 MPI processor grid
create_atoms 1 box
Created 216000 atoms
  Time spent = 0.040261 secs
mass 1 4.0
mass 2 0.5


pair_style lj/cut 2.5
pair_coeff 1 1 1.0 1.0 2.5
pair_coeff 2 2 0.5 0.88 2.5
pair_coeff 1 2 0.2 1.0 2.5
#pair_coeff 1 2 1.5 0.8 2.5
pair_modify mix geometric
neigh_modify every 1 delay 0 check yes

variable R equal 12
region cylinder1 cylinder x $(0.5*ly) $(0.5*lz) $R EDGE EDGE units box
region cylinder1 cylinder x 24.012813670346833561 $(0.5*lz) $R EDGE EDGE units box
region cylinder1 cylinder x 24.012813670346833561 24.012813670346833561 $R EDGE EDGE units box
region cylinder1 cylinder x 24.012813670346833561 24.012813670346833561 12 EDGE EDGE units box

group cylinder1 region cylinder1
41820 atoms in group cylinder1
variable V equal PI*v_R*v_R*lx
# variable rho equal 0.1
variable natoms equal $V*${rho}
variable natoms equal 43452.5639148185*${rho}
variable natoms equal 43452.5639148185*0.30
variable natoms_in_cylinder equal count(cylinder1)
variable delete_fraction equal (${natoms_in_cylinder}-${natoms})/${natoms_in_cylinder}
variable delete_fraction equal (41820-${natoms})/${natoms_in_cylinder}
variable delete_fraction equal (41820-13035.7691744455)/${natoms_in_cylinder}
variable delete_fraction equal (41820-13035.7691744455)/41820
set group cylinder1 type 2
  41820 settings made for type
delete_atoms porosity cylinder1 ${delete_fraction} 12345
delete_atoms porosity cylinder1 0.688288637626841 12345
Deleted 28943 atoms, new total = 187057
#delete_atoms region cylinder1

region cylinder2 cylinder x $(0.5*ly) $(0.5*lz) $(v_R+6) EDGE EDGE units box
region cylinder2 cylinder x 24.012813670346833561 $(0.5*lz) $(v_R+6) EDGE EDGE units box
region cylinder2 cylinder x 24.012813670346833561 24.012813670346833561 $(v_R+6) EDGE EDGE units box
region cylinder2 cylinder x 24.012813670346833561 24.012813670346833561 18 EDGE EDGE units box
region cylinder3 cylinder x $(0.5*ly) $(0.5*lz) $(v_R+9) EDGE EDGE units box
region cylinder3 cylinder x 24.012813670346833561 $(0.5*lz) $(v_R+9) EDGE EDGE units box
region cylinder3 cylinder x 24.012813670346833561 24.012813670346833561 $(v_R+9) EDGE EDGE units box
region cylinder3 cylinder x 24.012813670346833561 24.012813670346833561 21 EDGE EDGE units box
group cylinder2 region cylinder2
66877 atoms in group cylinder2
group cylinder3 region cylinder3
100717 atoms in group cylinder3

group nve region cylinder3
100717 atoms in group nve
group langevin subtract cylinder3 cylinder2
33840 atoms in group langevin
group frozen subtract all cylinder3
86340 atoms in group frozen

region force cylinder x $(0.5*ly) $(0.5*lz) $(v_R-1) EDGE EDGE units box
region force cylinder x 24.012813670346833561 $(0.5*lz) $(v_R-1) EDGE EDGE units box
region force cylinder x 24.012813670346833561 24.012813670346833561 $(v_R-1) EDGE EDGE units box
region force cylinder x 24.012813670346833561 24.012813670346833561 11 EDGE EDGE units box
group gas type 2
12877 atoms in group gas

fix nve nve nve
fix langevin langevin langevin 0.50 0.50 1.0 12345 zero yes

variable gascount equal count(gas)

variable dP equal 0.001
variable force equal v_dP/v_rho

velocity all create 0.1 87287
velocity frozen set 0 0 0

compute chunk all chunk/atom bin/cylinder x lower $(lx) $(0.5*ly) $(0.5*lz) 0 $(v_R+3) 80 units box
compute chunk all chunk/atom bin/cylinder x lower 96.051254681387334244 $(0.5*ly) $(0.5*lz) 0 $(v_R+3) 80 units box
compute chunk all chunk/atom bin/cylinder x lower 96.051254681387334244 24.012813670346833561 $(0.5*lz) 0 $(v_R+3) 80 units box
compute chunk all chunk/atom bin/cylinder x lower 96.051254681387334244 24.012813670346833561 24.012813670346833561 0 $(v_R+3) 80 units box
compute chunk all chunk/atom bin/cylinder x lower 96.051254681387334244 24.012813670346833561 24.012813670346833561 0 15 80 units box

compute displacement all displace/atom
compute mean_displacement nve reduce ave c_displacement[4]

compute vmax all reduce max vx
variable volume equal count(gas)/v_V

thermo_style custom step time temp c_mean_displacement v_volume v_force c_vmax dt spcpu cpuremain
thermo 100

compute keAtom all ke/atom
dump dump all custom 1000 trajectory.bin id type x y z c_keAtom

fix flow gas addforce v_force 0.0 0.0
run 5000
No /omp style for force computation currently active
Per MPI rank memory allocation (min/avg/max) = 91.13 | 91.13 | 91.13 Mbytes
Step Time Temp c_mean_displacement v_volume v_force c_vmax Dt S/CPU CPULeft 
       0            0  0.053832911            0   0.29634615 0.0033333333    0.7749463        0.005            0            0 
     100          0.5  0.072060685  0.086975473   0.29634615 0.0033333333     2.540399        0.005    135.89284    36.057823 
     200            1   0.10380687   0.15232976   0.29634615 0.0033333333     2.857741        0.005    133.98988    35.572775 
     300          1.5   0.12063267   0.21770683   0.29634615 0.0033333333    2.7637144        0.005    133.09589    34.992094 
     400            2   0.13380278   0.27531465   0.29634615 0.0033333333    3.1484449        0.005    131.23514    34.448583 
     500          2.5   0.14257318      0.32699   0.29634615 0.0033333333    3.1573868        0.005    132.11001    33.772264 
     600            3    0.1480823   0.36655146   0.29634615 0.0033333333    3.4728586        0.005    132.46541    33.054178 
     700          3.5   0.15419053   0.39049748   0.29634615 0.0033333333    3.5777394        0.005    133.47552    32.290475 
     800            4   0.16247843   0.40164864   0.29634615 0.0033333333     3.195956        0.005     132.8369    31.549307 
     900          4.5   0.16933927   0.40299831   0.29634615 0.0033333333      3.54052        0.005    132.85979    30.804962 
    1000            5    0.1737361   0.39850356   0.29634615 0.0033333333    3.2621787        0.005    127.98543    30.173615 
    1100          5.5   0.17801485   0.39588554   0.29634615 0.0033333333    3.3900684        0.005    129.24106    29.488084 
    1200            6   0.18072149   0.39973818   0.29634615 0.0033333333    3.4407524        0.005    132.70695    28.723857 
    1300          6.5   0.18341808   0.41089549   0.29634615 0.0033333333    3.6273026        0.005    130.90702    27.990764 
    1400            7   0.18687463   0.42578891   0.29634615 0.0033333333    3.4945619        0.005    131.40017    27.245898 
    1500          7.5   0.18962839   0.44263939   0.29634615 0.0033333333    3.4364612        0.005    132.85681    26.479404 
    1600            8      0.19403   0.45856305   0.29634615 0.0033333333    3.6568791        0.005    131.29064    25.733718 
    1700          8.5   0.19838457   0.47417854   0.29634615 0.0033333333    3.2912138        0.005    130.05574    25.000192 
    1800            9   0.20287096   0.49118028   0.29634615 0.0033333333    4.0131134        0.005    128.06671    24.283964 
    1900          9.5   0.20690584   0.50974609   0.29634615 0.0033333333    3.6823337        0.005    131.98326    23.523128 
    2000           10   0.21099453   0.52974044   0.29634615 0.0033333333    3.3411938        0.005    129.01327    22.788774 
    2100         10.5   0.21451517   0.55092035   0.29634615 0.0033333333    3.2950132        0.005     128.7475    22.052746 
    2200           11   0.21648229   0.57134838   0.29634615 0.0033333333    3.8182561        0.005    131.16201    21.294822 
    2300         11.5   0.21837865   0.58935932   0.29634615 0.0033333333    3.2271724        0.005    129.47513    20.548168 
    2400           12   0.22061485   0.60425607   0.29634615 0.0033333333    3.5588361        0.005    131.02057    19.789503 
    2500         12.5   0.22204217   0.61574127   0.29634615 0.0033333333    4.5533227        0.005    133.46091    19.016517 
    2600           13   0.22303156   0.62432826   0.29634615 0.0033333333    3.2030776        0.005    131.74071    18.254385 
    2700         13.5   0.22423158   0.63049287   0.29634615 0.0033333333    3.6166474        0.005    128.34829    17.509571 
    2800           14   0.22699338   0.63520204   0.29634615 0.0033333333     3.324395        0.005    128.19032     16.76306 
    2900         14.5   0.22755271   0.63987002   0.29634615 0.0033333333    3.3648844        0.005     131.0173    16.002045 
    3000           15   0.22809325     0.646887   0.29634615 0.0033333333    3.5557834        0.005    128.86582    15.249375 
    3100         15.5   0.22959192   0.65499192   0.29634615 0.0033333333    3.5376993        0.005    126.60196    14.503705 
    3200           16   0.22988578   0.66515393   0.29634615 0.0033333333    3.9540659        0.005    128.86269    13.747478 
    3300         16.5   0.23213987   0.67693289   0.29634615 0.0033333333    3.9508933        0.005    130.05525    12.986384 
    3400           17   0.23353903   0.68893791   0.29634615 0.0033333333    3.5336864        0.005    129.49559    12.226395 
    3500         17.5   0.23594333   0.70094077   0.29634615 0.0033333333    3.3129537        0.005    128.67743    11.467812 
    3600           18   0.23775184   0.71292778   0.29634615 0.0033333333    4.0538242        0.005    129.68133    10.705858 
    3700         18.5   0.23943781   0.72448174   0.29634615 0.0033333333    3.6584867        0.005    129.34169    9.9441194 
    3800           19   0.24107222   0.73601184   0.29634615 0.0033333333    3.7514694        0.005    130.88541    9.1789016 
    3900         19.5   0.24179284   0.74815337   0.29634615 0.0033333333    3.5064114        0.005    130.02159     8.415176 
    4000           20   0.24213665   0.75984936   0.29634615 0.0033333333    3.5200179        0.005    128.69252    7.6531677 
    4100         20.5   0.24298929   0.77156961   0.29634615 0.0033333333    3.2436698        0.005    129.33316    6.8895805 
    4200           21   0.24438552   0.78218393   0.29634615 0.0033333333    3.4757643        0.005    131.55922    6.1230442 
    4300         21.5   0.24528344   0.79221794   0.29634615 0.0033333333    3.2718882        0.005    130.49785    5.3578127 
    4400           22   0.24600398   0.80104676   0.29634615 0.0033333333    3.5231041        0.005    131.41158    4.5918063 
    4500         22.5   0.24632047   0.80911889   0.29634615 0.0033333333    3.8445981        0.005    129.44967    3.8273052 
    4600           23   0.24660346   0.81590611   0.29634615 0.0033333333    4.0373915        0.005    130.04424    3.0621492 
    4700         23.5   0.24754065   0.82282272   0.29634615 0.0033333333    4.1638248        0.005    128.75086     2.297324 
    4800           24   0.24832338   0.83027148   0.29634615 0.0033333333    4.0199617        0.005    129.42503    1.5318357 
    4900         24.5   0.24818396   0.83838595   0.29634615 0.0033333333    3.4190059        0.005    129.65611    0.7660271 
    5000           25   0.24720782   0.84710943   0.29634615 0.0033333333    3.4522676        0.005    129.03709            0 
Loop time of 38.3103 on 4 procs for 5000 steps with 187057 atoms

Performance: 56381.679 tau/day, 130.513 timesteps/s
241.6% CPU use with 1 MPI tasks x 4 OpenMP threads

MPI task timing breakdown:
Section |  min time  |  avg time  |  max time  |%varavg| %total
---------------------------------------------------------------
Pair    | 16.401     | 16.401     | 16.401     |   0.0 | 42.81
Neigh   | 0.30046    | 0.30046    | 0.30046    |   0.0 |  0.78
Comm    | 4.1427     | 4.1427     | 4.1427     |   0.0 | 10.81
Output  | 0.16044    | 0.16044    | 0.16044    |   0.0 |  0.42
Modify  | 13.964     | 13.964     | 13.964     |   0.0 | 36.45
Other   |            | 3.342      |            |       |  8.72

Nlocal:    187057 ave 187057 max 187057 min
Histogram: 1 0 0 0 0 0 0 0 0 0
Nghost:    67486 ave 67486 max 67486 min
Histogram: 1 0 0 0 0 0 0 0 0 0
Neighs:    0 ave 0 max 0 min
Histogram: 1 0 0 0 0 0 0 0 0 0

Total # of neighbors = 0
Ave neighs/atom = 0
Neighbor list builds = 648
Dangerous builds = 0

reset_timestep 0
fix vx all ave/chunk 10 10000 100000 chunk vx ave running file velocity.txt

fix dt all dt/reset 10 NULL NULL 0.05 units box

run 100000
No /omp style for force computation currently active
Per MPI rank memory allocation (min/avg/max) = 101.1 | 101.1 | 101.1 Mbytes
Step Time Temp c_mean_displacement v_volume v_force c_vmax Dt S/CPU CPULeft 
       0           25   0.24720782   0.84710943   0.29634615 0.0033333333    3.4522676  0.012255042            0            0 
     100    26.126375   0.24809988   0.86716359   0.29634615 0.0033333333    3.5344546  0.011497762    107.93727    925.53762 
     200    27.235215   0.25070552   0.88629113   0.29634615 0.0033333333    3.9962677  0.011536195    106.93186    928.95835 
     300    28.363609   0.25174925   0.90579868   0.29634615 0.0033333333    3.7539764  0.011262126    106.32065    931.26148 
     400    29.463055    0.2539419   0.92673225   0.29634615 0.0033333333    3.5885235  0.011781604    109.15506    925.86142 
     500    30.570629   0.25336053   0.94745896   0.29634615 0.0033333333    3.6850137  0.010407059    109.24664    922.10215 
     600    31.623339   0.25581799   0.96303984   0.29634615 0.0033333333    3.7760043  0.010808013    108.34187    920.55716 
     700    32.699221   0.25538991   0.97890235   0.29634615 0.0033333333    3.5969768  0.010808876    109.43459    917.88238 
     800    33.844515   0.25494517   0.99717053   0.29634615 0.0033333333    3.7308916  0.010658675     109.8452     915.2244 
     900     34.96546   0.25689945    1.0150218   0.29634615 0.0033333333    3.9071308 0.0098457554    109.59169     913.1868 
    1000    36.091564   0.25739877    1.0346605   0.29634615 0.0033333333    3.5697985  0.012167215    107.73108    912.93425 
    1100    37.171943   0.25774218    1.0522369   0.29634615 0.0033333333    3.8972019  0.010995814    106.93015    913.18398 
    1200    38.233231   0.25914249    1.0712478   0.29634615 0.0033333333    4.1427361  0.011232459    107.01448    913.17555 
    1300    39.352054   0.25994337    1.0905188   0.29634615 0.0033333333    3.8845714  0.010633014    108.71717    911.91345 
    1400    40.449365   0.25973398    1.1084506   0.29634615 0.0033333333    3.9223398  0.010945236    110.04345    909.91953 
    1500    41.544637   0.26114273    1.1256058   0.29634615 0.0033333333     4.066759 0.0098029989    107.87497    909.26992 
    1600    42.592828   0.26080482     1.141388   0.29634615 0.0033333333    3.9742234 0.0096018105    108.07483    908.48016 
    1700    43.649147    0.2600024    1.1577402   0.29634615 0.0033333333    3.8384324  0.011324576    108.92095    907.25875 
    1800    44.778619   0.26153691    1.1749959   0.29634615 0.0033333333    3.8167698  0.011880158    107.39926    906.78082 
    1900    45.897535   0.26136282    1.1926773   0.29634615 0.0033333333    3.6689117  0.010294928    111.30083    904.56987 
    2000    46.983331   0.26115057    1.2085506   0.29634615 0.0033333333    4.0252367  0.010377066    106.43629    904.50237 
    2100    48.062626   0.26262814    1.2249198   0.29634615 0.0033333333    3.3823519  0.010647895     110.5295    902.72975 
    2200    49.150131   0.26213949    1.2426672   0.29634615 0.0033333333    3.8244268   0.01111313    109.71286    901.33538 
    2300     50.26333   0.26303612    1.2589114   0.29634615 0.0033333333    3.7419475  0.011387954    108.76684    900.31973 
    2400     51.36341   0.26297241    1.2759575   0.29634615 0.0033333333    3.9978942  0.011477654    109.97651    898.90088 
    2500    52.472585    0.2623333     1.291001   0.29634615 0.0033333333     4.196301  0.011046661    109.08361    897.81311 
    2600    53.592617   0.26180321     1.308613   0.29634615 0.0033333333    3.4008924  0.010594757    109.43396    896.62848 
    2700    54.659428   0.26268849    1.3267663   0.29634615 0.0033333333    4.1117658  0.010840022    108.60819    895.71436 
    2800     55.74728    0.2630552     1.344905   0.29634615 0.0033333333     3.795736  0.010186715    109.90084    894.42378 
    2900    56.807546   0.26343523    1.3624538   0.29634615 0.0033333333    4.1900575  0.010547913    109.23196    893.34602 
    3000    57.874284   0.26502345    1.3796697   0.29634615 0.0033333333    3.8778591  0.011564538    108.53203    892.46997 
    3100    58.972818   0.26281935    1.3992869   0.29634615 0.0033333333    3.8666624  0.011191345    108.09338    891.70787 
    3200    60.071042   0.26433073    1.4177617   0.29634615 0.0033333333    3.6457101  0.010526525    107.36676    891.12498 
    3300    61.130941   0.26480929    1.4336759   0.29634615 0.0033333333    4.0239349  0.010828582    108.05286    890.34764 
    3400    62.212115   0.26387797    1.4509809   0.29634615 0.0033333333    3.5284985 0.0099410956    108.22067    889.52087 
    3500    63.316165   0.26365656    1.4679891   0.29634615 0.0033333333    3.8269693  0.011455809    108.70522    888.57495 
    3600    64.429905   0.26464998    1.4854414   0.29634615 0.0033333333    3.9615655  0.011138931    109.91256    887.35986 
    3700    65.536723   0.26332988    1.5021421   0.29634615 0.0033333333      3.92653  0.011392406    108.60912    886.44551 
    3800    66.635374   0.26574847    1.5188359   0.29634615 0.0033333333      3.77897   0.01117967    109.09504    885.42698 
    3900    67.646669   0.26519438    1.5341641   0.29634615 0.0033333333    3.6745828  0.010695614    109.73445    884.28207 
    4000    68.694329   0.26475526    1.5498393   0.29634615 0.0033333333    3.5067687   0.01141537    107.09022    883.68886 
    4100    69.792115   0.26442714    1.5678668   0.29634615 0.0033333333      4.51565  0.010181124    110.19503    882.46364 
    4200    70.888883   0.26468406    1.5867241   0.29634615 0.0033333333    4.0108881  0.011063046    109.30645    881.42181 
    4300    71.942497   0.26451969    1.6043624   0.29634615 0.0033333333     4.134146  0.010730947    107.84798    880.66125 
    4400     72.98384   0.26648968    1.6229296   0.29634615 0.0033333333    3.7456356  0.010639848    108.50342    879.77138 
    4500    73.992315   0.26540895    1.6402093   0.29634615 0.0033333333    4.0938414  0.011883389    107.16275    879.12485 
    4600     75.07772    0.2645067    1.6589587   0.29634615 0.0033333333    4.2490127   0.01096519    108.62293    878.20567 
    4700    76.145883   0.26628698    1.6767913   0.29634615 0.0033333333    3.6569146   0.01002908    110.80023    876.91962 
    4800    77.185652   0.26566125    1.6942472   0.29634615 0.0033333333    4.1409923  0.011775465    108.12472    876.09248 
    4900    78.271176   0.26584199    1.7121545   0.29634615 0.0033333333    4.0532329  0.010675215     109.0692    875.10591 
    5000    79.293755   0.26588682    1.7295907   0.29634615 0.0033333333    3.7771457  0.010353546    108.43778    874.22358 
    5100    80.330688   0.26629763      1.74759   0.29634615 0.0033333333    3.7759348  0.010705223    107.77011    873.44598 
    5200    81.385503   0.26596248     1.766293   0.29634615 0.0033333333    3.7116675  0.010700085    110.79558    872.20067 
    5300    82.443783   0.26593526    1.7846824   0.29634615 0.0033333333    3.6510037  0.010953083     108.1661    871.36034 
    5400    83.528784   0.26626181    1.8042811   0.29634615 0.0033333333    3.8414887  0.010576065    109.47627    870.32307 
    5500    84.589171    0.2656194    1.8229939   0.29634615 0.0033333333    3.8835915  0.010682134    109.31494    869.31346 
    5600     85.67241   0.26579261    1.8418324   0.29634615 0.0033333333    4.0834144  0.011334541    109.93722    868.21995 
    5700    86.757078   0.26625244    1.8604183   0.29634615 0.0033333333    3.7800994  0.011636982    108.91255    867.27447 
    5800    87.853723   0.26605115     1.878842   0.29634615 0.0033333333    3.7759628  0.011656107    108.86961    866.33582 
    5900     88.93904   0.26686571    1.8968202   0.29634615 0.0033333333    3.6253453  0.011024381    108.05213    865.50868 
    6000    90.061158    0.2667807     1.916556   0.29634615 0.0033333333    3.8954701   0.01002841    108.74981    864.58524 
    6100    91.124911   0.26594161    1.9356904   0.29634615 0.0033333333    3.5923354  0.010273023    106.63209    863.94305 
    6200    92.200687   0.26756088    1.9540488   0.29634615 0.0033333333    3.7063611  0.011113867      111.954    862.61688 
    6300     93.25865   0.26621424    1.9728532   0.29634615 0.0033333333    3.6780644  0.011347075    109.21191      861.638 
    6400    94.338891   0.26664444    1.9928373   0.29634615 0.0033333333    4.3692617  0.010302003    108.58472    860.73845 
    6500    95.438409   0.26705077    2.0134086   0.29634615 0.0033333333    3.7492725  0.010407094    109.11894    859.77337 
    6600     96.50287   0.26688448    2.0332708   0.29634615 0.0033333333    3.8527623  0.011312007    107.79047    858.96963 
    6700    97.588921   0.26731306    2.0540604   0.29634615 0.0033333333    3.8290284  0.011388532    108.11383    858.12353 
    6800    98.690185   0.26666483    2.0765641   0.29634615 0.0033333333    4.1119958  0.011418482    108.40578    857.24098 
    6900    99.775675   0.26735538    2.0975214   0.29634615 0.0033333333    3.7556591  0.010498465    109.51523    856.23118 
    7000    100.83581   0.26686852    2.1180271   0.29634615 0.0033333333    3.8937871  0.010347463     107.8087    855.41617 
    7100    101.85806   0.26795926     2.138056   0.29634615 0.0033333333     4.092881  0.010428007    108.35444    854.53686 
    7200    102.92993   0.26659926    2.1593743   0.29634615 0.0033333333    4.1207187  0.010799781    108.48187    853.64235 
    7300    103.99035    0.2666163    2.1805201   0.29634615 0.0033333333    3.8887171 0.0098216338     107.1235    852.89556 
    7400    105.02945   0.26788609    2.2007815   0.29634615 0.0033333333    4.1645817  0.010887005    110.67273    851.76909 
    7500    106.10477   0.26857828    2.2229019   0.29634615 0.0033333333    3.7915477  0.011587301    106.16411    851.12183 
    7600    107.19641   0.26694556    2.2459041   0.29634615 0.0033333333    4.1944247  0.010073505    108.45822    850.22458 
    7700    108.24628   0.26724808    2.2666217   0.29634615 0.0033333333    4.2847769 0.0097682838    109.84471    849.18719 
    7800    109.30104   0.26811858    2.2894233   0.29634615 0.0033333333    4.0982964  0.010439533    109.55459    848.18155 
    7900    110.36945   0.26744567    2.3125707   0.29634615 0.0033333333    3.7960021  0.010876379    107.14104    847.41797 
    8000    111.43178    0.2675244    2.3335375   0.29634615 0.0033333333      3.93203  0.010989226      107.153    846.64896 
    8100    112.50918   0.26794532    2.3567968   0.29634615 0.0033333333    3.9313196  0.010768993     107.1359    845.87758 
    8200     113.5945   0.26679427     2.379962   0.29634615 0.0033333333    3.8641274  0.011338053     109.5912    844.86815 
    8300    114.69167   0.26723328    2.4014159   0.29634615 0.0033333333    3.9469192  0.011297244    110.38429    843.78861 
    8400    115.74916   0.26844708    2.4240246   0.29634615 0.0033333333    4.3568208  0.010986186    109.66126    842.77834 
    8500    116.80153   0.26709436    2.4477986   0.29634615 0.0033333333    3.8532138  0.010559466    109.32415    841.80066 
    8600    117.85529   0.26738606    2.4709141   0.29634615 0.0033333333    4.4898452  0.010476608    110.36541    840.73272 
    8700    118.89401   0.26782681    2.4929236   0.29634615 0.0033333333     3.845497  0.011153772    108.72472    839.81199 
    8800    119.93806   0.26759138    2.5150111   0.29634615 0.0033333333    3.9411601   0.01133159    108.55597    838.90611 
    8900    120.99299   0.26860696    2.5377292   0.29634615 0.0033333333     4.315428  0.010800769    110.23205     837.8565 
    9000    122.05279   0.26724839    2.5611288   0.29634615 0.0033333333    4.6280047 0.0096282183    107.32217    837.05876 
    9100    123.09351   0.26850107    2.5832915   0.29634615 0.0033333333    3.8791728  0.010046701     107.2401     836.2652 
    9200    124.15515   0.26806215    2.6072524   0.29634615 0.0033333333    4.2356001  0.010892348    109.58748    835.27148 
    9300    125.22547   0.26760957    2.6321443   0.29634615 0.0033333333    3.7744336  0.010825769    109.73984    834.26715 
    9400    126.28232   0.26915758    2.6555929   0.29634615 0.0033333333    4.0255368  0.011346684    108.45189    833.36911 
    9500    127.30116   0.26905598    2.6794224   0.29634615 0.0033333333    4.0201568  0.010206876    109.14839    832.41451 
    9600     128.3894    0.2686368    2.7038904   0.29634615 0.0033333333    3.9605238  0.010177943    108.36679    831.52294 
    9700    129.45822   0.26794144    2.7291487   0.29634615 0.0033333333    3.6791394  0.010375492    110.17292    830.48989 
    9800    130.53141   0.26907597    2.7530105   0.29634615 0.0033333333     3.983947  0.011217802    108.97483    829.55125 
    9900    131.60739   0.26710311     2.777274   0.29634615 0.0033333333    3.9945657  0.010488542    110.64897    828.48667 
   10000    132.67906   0.26821108    2.8025029   0.29634615 0.0033333333    4.1909503 0.0097795714    107.53983    827.66048 
   10100    133.74264   0.26777036    2.8260732   0.29634615 0.0033333333    3.5737989  0.010855898    107.45674    826.83862 
   10200    134.80678   0.26877392    2.8501556   0.29634615 0.0033333333    3.9952587  0.011084125    108.72061     825.9194 
   10300    135.90306   0.26872467    2.8751325   0.29634615 0.0033333333    4.4018334    0.0102692    109.04149    824.97658 
   10400    136.95515   0.26917773     2.899937   0.29634615 0.0033333333     3.752164  0.011210563    108.94907    824.04097 
   10500    138.02005   0.26966095    2.9257784   0.29634615 0.0033333333    4.1211453  0.010561311    108.09209    823.16773 
   10600    139.06823   0.27033829    2.9516462   0.29634615 0.0033333333    4.1814155  0.010772262    108.15291    822.28912 
   10700    140.11129   0.26939093    2.9766742   0.29634615 0.0033333333    4.2122887  0.010066402    109.13121    821.34046 
   10800     141.1704   0.26895104    3.0021875   0.29634615 0.0033333333    3.7517986  0.010564582    108.47623    820.43811 
   10900    142.21864   0.26872069    3.0278881   0.29634615 0.0033333333    3.7998764  0.010372943    108.63638    819.52429 
   11000    143.27942   0.26899562     3.053393   0.29634615 0.0033333333    4.1732488  0.010137203    105.47166    818.83382 
   11100    144.29775   0.26985929    3.0780542   0.29634615 0.0033333333    4.2373109  0.009990601    108.75167    817.90968 
   11200    145.32285   0.26853888    3.1049739   0.29634615 0.0033333333    4.4271876  0.010142869    111.15707    816.82786 
   11300    146.40631   0.26861994    3.1317236   0.29634615 0.0033333333    4.3030888  0.010205992    107.71139    815.97517 
   11400     147.4707   0.26955867    3.1584489   0.29634615 0.0033333333    3.7099281  0.010686234    107.70071    815.12186 
   11500    148.53322   0.26956966    3.1844677   0.29634615 0.0033333333    4.6979001   0.01045993    108.79452    814.19541 
   11600    149.54476   0.26921107    3.2092072   0.29634615 0.0033333333    4.0558035  0.010147801    110.65986    813.15101 
   11700    150.57187   0.26974985     3.234194   0.29634615 0.0033333333    4.1261657  0.010276636    108.47834    812.24617 
   11800    151.65313   0.26900267    3.2618667   0.29634615 0.0033333333      4.27563  0.010744018    109.12289    811.30034 
   11900    152.73629   0.26905493    3.2887782   0.29634615 0.0033333333    4.2675669  0.010720921    108.63779     810.3853 
   12000    153.81309   0.26854434    3.3161427   0.29634615 0.0033333333    3.7521932  0.011321038    107.36261    809.55034 
   12100    154.86542   0.26952726    3.3434174   0.29634615 0.0033333333    4.0986976  0.010715021    109.14339    808.60339 
   12200    155.92709    0.2683447    3.3713884   0.29634615 0.0033333333     5.071896 0.0097301793     109.4547    807.63819 
   12300    156.97398   0.26876366    3.3985248   0.29634615 0.0033333333    3.8516393 0.0098713104    106.87895    806.83082 
   12400    157.98801   0.26933291    3.4237904   0.29634615 0.0033333333    4.0500453  0.010963472    108.85489    805.90139 
   12500    159.09334   0.26960936    3.4521008   0.29634615 0.0033333333    4.3163179 0.0099904835    105.89059    805.15216 
   12600    160.16566   0.26993167    3.4784161   0.29634615 0.0033333333    3.7821266  0.011165137    108.07833    804.26723 
   12700     161.2121   0.26931933    3.5032195   0.29634615 0.0033333333    4.1201267 0.0092745595    107.07977    803.44097 
   12800     162.1525   0.26903588    3.5265566   0.29634615 0.0033333333    4.3745896 0.0095722323    110.26795     802.4291 
   12900     163.2009   0.26898855    3.5527345   0.29634615 0.0033333333    3.8869858  0.011113066    109.26465    801.47506 
   13000    164.27695   0.26960344    3.5798931   0.29634615 0.0033333333    4.4863579 0.0098502568    105.73472    800.72611 
   13100    165.31837   0.26923144    3.6053718   0.29634615 0.0033333333    4.5426533 0.0099601414    107.31619     799.8817 
   13200    166.38144   0.26954503     3.631541   0.29634615 0.0033333333    4.1503224  0.010073424     108.4534    798.97171 
   13300    167.42879    0.2705585     3.657596   0.29634615 0.0033333333    3.9862141  0.011012426    108.43201    798.06273 
   13400     168.5304   0.26948151    3.6849883   0.29634615 0.0033333333    4.2602572  0.010509545    109.04816    797.11986 
   13500    169.58045   0.26967049     3.710561   0.29634615 0.0033333333    4.3838885 0.0096829665    107.60033    796.25645 
   13600    170.60235   0.26925673    3.7354828   0.29634615 0.0033333333     3.980366  0.010336947    109.24234    795.30332 
   13700    171.65604   0.26986243    3.7615301   0.29634615 0.0033333333    3.9005999  0.010654887    109.05068    794.36088 
   13800    172.72185   0.26951088    3.7885284   0.29634615 0.0033333333    4.0142286 0.0092408097    108.22603    793.46245 
   13900    173.75817   0.26845207    3.8153667   0.29634615 0.0033333333    3.8853903  0.010672502    108.26894    792.56138 
   14000    174.78132   0.26996236    3.8421091   0.29634615 0.0033333333    4.4314708   0.01099723     108.2503    791.66097 
   14100    175.84395   0.26988689    3.8697117   0.29634615 0.0033333333    3.7920916  0.010867342    108.92983    790.72512 
   14200    176.89392   0.26977973    3.8964828   0.29634615 0.0033333333    4.1014416 0.0096161632    108.05227    789.83457 
   14300    177.94224   0.26939424     3.923981   0.29634615 0.0033333333    3.8087653  0.010431193    107.80103    788.95646 
   14400    178.94986   0.27008857    3.9502405   0.29634615 0.0033333333    4.6550406 0.0098671802    108.64381    788.03488 
   14500    180.00663   0.26931086    3.9797277   0.29634615 0.0033333333     4.023826  0.011069412    110.55613    787.01945 
   14600    181.07213   0.26996136    4.0092748   0.29634615 0.0033333333    3.7027311  0.010713008    108.74375     786.0937 
   14700    182.07357   0.27006903    4.0366534   0.29634615 0.0033333333    4.4836874 0.0096538772    105.52765    785.33067 
   14800    183.05366   0.27124884    4.0630253   0.29634615 0.0033333333    3.8760476  0.010616123    106.93323    784.49344 
   14900    184.15035   0.27088342    4.0944853   0.29634615 0.0033333333     3.748643  0.010808488    108.66543    783.56975 
   15000    185.17833    0.2695032    4.1232187   0.29634615 0.0033333333    3.9005523  0.009671951    108.07574    782.67457 
   15100    186.24018   0.26870466    4.1534201   0.29634615 0.0033333333    3.9854777  0.010208267    106.46722    781.85758 
   15200     187.2551   0.26823872    4.1823423   0.29634615 0.0033333333     4.648842  0.010414123    110.20537    780.86124 
   15300    188.28247   0.26974648    4.2103046   0.29634615 0.0033333333    5.4594111 0.0076889801    107.83251    779.97661 
   15400    189.28806   0.26869116    4.2394293   0.29634615 0.0033333333    3.9466851  0.010319659    107.77396    779.09418 
   15500    190.33331   0.26921121    4.2698093   0.29634615 0.0033333333    3.6564423  0.011347832    109.79839    778.11791 
   15600    191.37909   0.26851661    4.3000595   0.29634615 0.0033333333    4.1610755  0.011215337    108.98174    777.17939 
   15700    192.39168   0.26987579     4.329409   0.29634615 0.0033333333    3.8088982  0.010601822    107.36179    776.31549 
   15800     193.4638    0.2697222    4.3614905   0.29634615 0.0033333333    3.7391453  0.010301231     108.7627     775.3868 
   15900    194.50314    0.2701996    4.3925857   0.29634615 0.0033333333    4.3435758  0.010400481    109.61764    774.42028 
   16000    195.55522   0.27062198    4.4238958   0.29634615 0.0033333333    3.9945573  0.010572857    106.69125    773.58582 
   16100    196.57551   0.26973548    4.4547189   0.29634615 0.0033333333    3.8596515  0.010440883    108.27115    772.67881 
   16200    197.62587   0.27067824    4.4869849   0.29634615 0.0033333333    3.9822338  0.010859895    108.59262    771.75745 
   16300    198.64973    0.2698637    4.5189436   0.29634615 0.0033333333    4.1407126  0.010353748    108.27151    770.85012 
   16400    199.70098   0.27019826    4.5522068   0.29634615 0.0033333333    5.1435141 0.0088616036      108.913    769.91486 
   16500    200.72767   0.27014317    4.5840701   0.29634615 0.0033333333    4.1210238  0.010056006    107.55406    769.03851 
   16600    201.75078   0.27022078    4.6160366   0.29634615 0.0033333333     4.146434  0.010407642    107.73191    768.15381 
   16700    202.77481   0.27071856    4.6469051   0.29634615 0.0033333333    4.6796267  0.010474078    108.72875    767.22614 
   16800    203.82807   0.27006331    4.6791346   0.29634615 0.0033333333    4.4041838  0.010095741    108.22335    766.31983 
   16900    204.87819   0.26949369    4.7122383   0.29634615 0.0033333333    4.0473028  0.010421363    109.86753    765.34532 
   17000    205.93988   0.26973094    4.7446984   0.29634615 0.0033333333    4.0553969  0.011058912    109.91838    764.36952 
   17100    207.00232   0.26977852    4.7791721   0.29634615 0.0033333333     4.541809 0.0096443424    108.87778    763.43663 
   17200     208.0081   0.26971325    4.8114831   0.29634615 0.0033333333    3.9839027  0.010662396    108.85896    762.50469 
   17300    209.05493    0.2706576    4.8451232   0.29634615 0.0033333333    4.1583544  0.010228994    108.56041    761.58496 
   17400    210.01831    0.2705515    4.8755526   0.29634615 0.0033333333      4.41527  0.010673133    109.01466    760.64701 
   17500    211.06071   0.27068288    4.9081828   0.29634615 0.0033333333    4.3758364  0.010580484    109.21583    759.70132 
   17600    212.07581   0.27099235    4.9406981   0.29634615 0.0033333333    3.9924009   0.01044558    108.72675    758.77525 
   17700    213.08447   0.27056945    4.9730942   0.29634615 0.0033333333    4.3725107  0.010157392    109.40105    757.82291 
   17800     214.1107   0.27025223    5.0050189   0.29634615 0.0033333333    4.7477282 0.0096596716    108.34974    756.91194 
   17900    215.14604   0.27092809    5.0377888   0.29634615 0.0033333333    4.4002645  0.010692615    108.09293    756.01091 
   18000    216.18675   0.26975406     5.070466   0.29634615 0.0033333333    4.6462509  0.010481283    104.37671    755.25966 
   18100    217.21418    0.2700063    5.1028455   0.29634615 0.0033333333    4.4797462  0.010038124    107.54598    754.37837 
   18200    218.25678   0.27071557    5.1369724   0.29634615 0.0033333333    3.9991924  0.010800646    110.06996    753.40072 
   18300    219.33691   0.27006976    5.1724004   0.29634615 0.0033333333    3.9011202 0.0099488845    109.04223    752.46204 
   18400    220.36714   0.27028487    5.2049973   0.29634615 0.0033333333    3.7073383 0.0098637644    108.01724     751.5622 
   18500    221.37045    0.2712933    5.2370887   0.29634615 0.0033333333    4.2871115 0.0091845542    108.35856    750.64922 
   18600    222.37832   0.27084619    5.2688094   0.29634615 0.0033333333    3.8802002 0.0095611017     110.9724    749.64102 
   18700    223.41195   0.27104834    5.3021701   0.29634615 0.0033333333    3.9518779  0.010687967    108.27081    748.73171 
   18800    224.44738   0.27019474    5.3350812   0.29634615 0.0033333333    4.0594338  0.010207809    107.71789    747.84273 
   18900    225.49808   0.27064756    5.3693809   0.29634615 0.0033333333    4.4100905  0.010421588    109.95051    746.87245 
   19000    226.54941   0.26915262    5.4035936   0.29634615 0.0033333333    4.0190307  0.010706023    106.78809    746.01763 
   19100    227.58667   0.27059521    5.4374878   0.29634615 0.0033333333    3.7710352  0.010465448    107.55732    745.13358 
   19200    228.65574   0.27136407    5.4735238   0.29634615 0.0033333333    4.0445015  0.009658975    108.89971    744.20083 
   19300    229.68753   0.27008646    5.5077853   0.29634615 0.0033333333     4.141647  0.010391257     109.2568    743.25569 
   19400    230.73094   0.27131759    5.5422119   0.29634615 0.0033333333    4.4145168  0.010966016    108.14234    742.35003 
   19500    231.79364   0.27140095    5.5776933   0.29634615 0.0033333333    4.8686142  0.009871674    110.01003    741.37937 
   19600    232.82452   0.27018646    5.6116787   0.29634615 0.0033333333    4.3476054 0.0093694614    108.13886    740.47386 
   19700     233.8561   0.27071081    5.6465671   0.29634615 0.0033333333     4.320712   0.01068504    107.46924    739.59165 
   19800    234.89473    0.2701228    5.6816207   0.29634615 0.0033333333    3.9719203  0.010322428    109.45707    738.64049 
   19900    235.92708   0.27132343    5.7170524   0.29634615 0.0033333333    4.0206186  0.011253511    110.34631    737.66008 
   20000    236.98009   0.27182637    5.7530956   0.29634615 0.0033333333    4.4843432 0.0096238262    107.35187    736.78153 
   20100    237.98913   0.27064922    5.7869118   0.29634615 0.0033333333    3.8557289  0.010047103      108.486    735.86374 
   20200    239.00987   0.27073043    5.8203433   0.29634615 0.0033333333    3.9058896 0.0097759412    110.57347    734.87716 
   20300    240.02592    0.2705002    5.8521817   0.29634615 0.0033333333    3.9611312  0.010561587    109.46764    733.92726 
   20400    241.03439    0.2697422    5.8847021   0.29634615 0.0033333333    5.1555302 0.0092099313    109.11849    732.98912 
   20500    242.00833   0.26963786    5.9161753   0.29634615 0.0033333333    4.7492918 0.0099204023    111.05053    731.98936 
   20600    243.01679   0.27105883    5.9487094   0.29634615 0.0033333333    4.0850667  0.010579536    108.62105     731.0682 
   20700    244.05631   0.27109208    5.9827669   0.29634615 0.0033333333    3.6594921  0.010527655    108.70722    730.14425 
   20800    245.12196   0.27001069     6.016386   0.29634615 0.0033333333    4.1382094  0.010428652    109.15674     729.2059 
   20900    246.16436   0.27014577    6.0494375   0.29634615 0.0033333333    4.4587121  0.009948962    107.31915    728.32714 
   21000    247.16313   0.27037909    6.0825842   0.29634615 0.0033333333    3.9982788 0.0098252832    104.86974    727.52976 
   21100     248.1883   0.27059913    6.1154278   0.29634615 0.0033333333     3.908103  0.011087184    109.40105     726.5832 
   21200    249.23875    0.2705643    6.1501918   0.29634615 0.0033333333    4.3887898  0.010482656    101.02141    725.91877 
   21300    250.28431   0.27115374    6.1840754   0.29634615 0.0033333333    4.4090452 0.0097293921    104.13708    725.14186 
   21400    251.31399   0.27072406    6.2172601   0.29634615 0.0033333333    4.1726451  0.010308828    109.26428    724.19773 
   21500    252.34116   0.27043308     6.249207   0.29634615 0.0033333333    4.5518233 0.0097576225    107.46078    723.30995 
   21600    253.35346   0.27013294    6.2807838   0.29634615 0.0033333333    4.3046041  0.010089898    109.46227    722.36002 
   21700    254.39382   0.27092067    6.3142778   0.29634615 0.0033333333    4.0403839  0.010692315    109.77129    721.40115 
   21800    255.46458   0.27000024    6.3477855   0.29634615 0.0033333333    4.2953799    0.0100296    109.34481    720.45545 
   21900    256.49495   0.26944443    6.3796722   0.29634615 0.0033333333    3.6916228  0.010390296    107.95185    719.55213 
   22000    257.56529   0.27015339    6.4136236   0.29634615 0.0033333333    3.8088672  0.010403091    109.03687    718.61591 
   22100    258.61121   0.27049347    6.4464831   0.29634615 0.0033333333    4.4656581  0.010388045    108.43775    717.69773 
   22200    259.61233   0.27029993    6.4775829   0.29634615 0.0033333333    4.8035374 0.0097451842    108.32629    716.78284 
   22300    260.63615   0.26981126    6.5093431   0.29634615 0.0033333333    4.3272944  0.010419162    109.15682     715.8434 
   22400    261.67328   0.26957825    6.5411175   0.29634615 0.0033333333    4.0931913  0.010987206    110.35481    714.86972 
   22500    262.74136   0.27038114    6.5733928   0.29634615 0.0033333333     4.094676  0.011079459    108.08964    713.96205 
   22600    263.78793   0.27156516    6.6054517   0.29634615 0.0033333333    4.0847818  0.010804335    110.17743    712.99418 
   22700    264.83296    0.2706211    6.6365765   0.29634615 0.0033333333    3.9050971  0.011153459    109.17589     712.0552 
   22800    265.88951   0.27069901    6.6684042   0.29634615 0.0033333333    3.9021206  0.010657369    107.98006    711.15076 
   22900     266.9277   0.27021457     6.699787   0.29634615 0.0033333333    4.1328736  0.011236407    109.01593    710.21651 
   23000    267.94608   0.27025676    6.7307253   0.29634615 0.0033333333    3.8943224  0.010842892    106.17663    709.36453 
   23100    269.00628   0.27069072    6.7637594   0.29634615 0.0033333333    4.5859482  0.010401528    108.10951    708.45571 
   23200    270.04298   0.27099611    6.7947286   0.29634615 0.0033333333    4.1446414  0.010606182    109.16816    707.51705 
   23300    271.06272   0.26943038     6.826291   0.29634615 0.0033333333    4.6214405 0.0099299587    107.17883    706.63457 
   23400    272.11196   0.26968132    6.8596196   0.29634615 0.0033333333    4.0913314  0.010966214    108.26204    705.72109 
   23500    273.10889   0.27212169    6.8901472   0.29634615 0.0033333333    4.2984281   0.01047067    107.22412    704.83663 
   23600    274.14744   0.26995277    6.9234562   0.29634615 0.0033333333    3.9841718  0.010314187    108.62186    703.91291 
   23700    275.13875   0.26956506    6.9549654   0.29634615 0.0033333333    4.8767078 0.0097415627    109.77767    702.95801 
   23800    276.14484   0.27064937     6.986639   0.29634615 0.0033333333    4.1747406 0.0097792338    109.36001    702.01462 
   23900    277.11182   0.27074022    7.0175984   0.29634615 0.0033333333    3.9082783   0.01017304    110.04296     701.0534 
   24000    278.13348   0.27167244    7.0488806   0.29634615 0.0033333333    4.0431339  0.010351752    110.12502    700.09048 
   24100    279.09417   0.27084784    7.0790784   0.29634615 0.0033333333    4.3134093  0.009083898     110.8156    699.11019 
   24200    280.04563   0.27101308    7.1092827   0.29634615 0.0033333333    3.8694147 0.0093561969    110.92377    698.12779 
   24300    280.99719   0.26994291    7.1386851   0.29634615 0.0033333333    3.8709569 0.0099043305    110.17463    697.16515 
   24400    282.03924   0.27000647    7.1704244   0.29634615 0.0033333333    4.4604468  0.010986976    109.73272    696.21428 
   24500    283.08155   0.26971146    7.2017422   0.29634615 0.0033333333    4.4757059  0.010244215    110.74702    695.23802 
   24600    284.07274   0.27037425    7.2324038   0.29634615 0.0033333333    4.7770338 0.0095377893    110.57447    694.26667 
   24700    285.03657   0.27149793     7.261411   0.29634615 0.0033333333    5.4123344 0.0091888211    110.24323    693.30415 
   24800    286.09249   0.27109864    7.2951216   0.29634615 0.0033333333    4.0832677  0.010263686    110.17402     692.3438 
   24900    287.14405    0.2715602    7.3271605   0.29634615 0.0033333333    4.1437907  0.011103918    111.40262    691.35369 
   25000    288.17773   0.27071244    7.3582392   0.29634615 0.0033333333    3.9304492  0.010085595    107.73205    690.45606 
   25100    289.17581   0.27156021    7.3891715   0.29634615 0.0033333333    4.0801807  0.010544391    110.98236    689.47707 
   25200    290.19509    0.2707638    7.4214667   0.29634615 0.0033333333    4.3398826  0.010359266    110.44978     688.5116 
   25300    291.22435   0.27093254    7.4526475   0.29634615 0.0033333333    4.5628184  0.010691985    111.48108    687.52187 
   25400    292.27315   0.27127034    7.4851161   0.29634615 0.0033333333    3.7737783  0.010462533    109.81072    686.57295 
   25500    293.25661   0.27053036    7.5147928   0.29634615 0.0033333333     4.046793  0.010143612    109.66272    685.62792 
   25600    294.27875   0.27157531    7.5460769   0.29634615 0.0033333333    4.3319533  0.011142748    110.01522    684.67465 
   25700      295.323   0.27048548    7.5787107   0.29634615 0.0033333333    4.5961392   0.01014734    110.67726    683.70601 
   25800    296.35826   0.27137959    7.6089639   0.29634615 0.0033333333     4.620577   0.01033152    110.61628    682.73931 
   25900    297.36293    0.2698962    7.6392562   0.29634615 0.0033333333    4.1701818  0.010025143    109.59661    681.79716 
   26000    298.40693   0.26922657    7.6707188   0.29634615 0.0033333333    4.3824282 0.0098459173    110.74748    680.82824 
   26100      299.446   0.27090044    7.7021526   0.29634615 0.0033333333    3.8086309  0.010927184    109.03818    679.89991 
   26200    300.45425   0.27102259    7.7338381   0.29634615 0.0033333333    4.0252156 0.0097463811    110.92981    678.92762 
   26300    301.48327   0.27068047    7.7654383   0.29634615 0.0033333333    3.9906636  0.011302871    111.82917    677.93554 
   26400    302.52196   0.27235633    7.7974062   0.29634615 0.0033333333    4.1487403 0.0095688026     108.6641    677.01682 
   26500    303.46858    0.2716833    7.8270281   0.29634615 0.0033333333    4.2515868 0.0095963396    111.04362     676.0434 
   26600     304.4417   0.27072976    7.8573121   0.29634615 0.0033333333    4.1072249 0.0096214028     109.8644     675.0972 
   26700    305.47184   0.27059191     7.889613   0.29634615 0.0033333333    4.5381105  0.010019851    111.05755    674.12441 
   26800    306.49203   0.27016342    7.9210864   0.29634615 0.0033333333    3.8321257  0.010125533    110.11253    673.17328 
   26900    307.50892   0.26960764    7.9530622   0.29634615 0.0033333333    5.0923693 0.0092606804    111.00109    672.20271 
   27000     308.5431   0.26885733    7.9863058   0.29634615 0.0033333333    3.9891626  0.010150774    109.75371    671.26034 
   27100    309.58916   0.26989941    8.0179396   0.29634615 0.0033333333    4.1883875  0.010221692     109.1491    670.33177 
   27200    310.60353   0.26976831     8.048886   0.29634615 0.0033333333    3.8516318  0.010874464     110.6043    669.37104 
   27300    311.64571   0.27033887    8.0813367   0.29634615 0.0033333333    4.1566519  0.010165238    110.03436    668.42319 
   27400    312.70212   0.27021343    8.1140149   0.29634615 0.0033333333     3.742561  0.010899553    111.72247    667.43924 
   27500    313.76832   0.27035529     8.146864   0.29634615 0.0033333333    4.0003864  0.011251199    110.70519    666.47762 
   27600    314.78217   0.27006119    8.1784544   0.29634615 0.0033333333    4.3122028  0.010103039    110.16858    665.52796 
   27700     315.7241   0.27011826    8.2077607   0.29634615 0.0033333333    5.1122112 0.0092765233    109.19235    664.59979 
   27800    316.73996   0.27188843    8.2395125   0.29634615 0.0033333333     4.083341   0.01098753    111.65624    663.61923 
   27900    317.76455   0.27135341    8.2712361   0.29634615 0.0033333333    3.8025034  0.010816007    109.84641     662.6774 
   28000    318.79321   0.27095385    8.3024754   0.29634615 0.0033333333    3.7907819  0.010688197    108.63343    661.76194 
   28100    319.82308    0.2704832    8.3337945   0.29634615 0.0033333333    4.4532127  0.010287968    108.78151    660.84324 
   28200    320.84998   0.27103144    8.3663444   0.29634615 0.0033333333     3.877426  0.010403075    110.47879    659.88857 
   28300    321.87753    0.2696513    8.3982599   0.29634615 0.0033333333    4.1727452   0.00925832    109.73419    658.94981 
   28400    322.87683   0.27026815    8.4278592   0.29634615 0.0033333333    3.9074495 0.0099366396    110.81364    657.98887 
   28500     323.8813   0.27064862    8.4577281   0.29634615 0.0033333333    4.2002843 0.0096911658    110.38624     657.0371 
   28600    324.93766    0.2712917    8.4896781   0.29634615 0.0033333333    4.0089786 0.0095623644    109.98283    656.09396 
   28700    325.91844   0.27020444    8.5191501   0.29634615 0.0033333333    5.2739718 0.0091054031    110.28372    655.14488 
   28800    326.91642   0.27086441    8.5485233   0.29634615 0.0033333333    3.9798108    0.0110447    111.22109     654.1772 
   28900    327.95574    0.2704034    8.5801028   0.29634615 0.0033333333    4.2140914    0.0106008    109.58713    653.24298 
   29000    328.98291   0.27048468    8.6116281   0.29634615 0.0033333333    4.3522836   0.01024522    110.82383    652.28398 
   29100    330.02905   0.27034848    8.6432388   0.29634615 0.0033333333    4.0694128  0.011040168    109.09337    651.36025 
   29200    331.11094   0.27065806     8.675652   0.29634615 0.0033333333    3.9904734 0.0093452767    110.71293    650.40405 
   29300    332.10589   0.27031818    8.7060229   0.29634615 0.0033333333    3.9758954 0.0093819622    110.47038    649.45299 
   29400    333.13394   0.27029203    8.7374101   0.29634615 0.0033333333    3.6329085  0.010660283    110.60257    648.49965 
   29500    334.20384   0.27119692    8.7705334   0.29634615 0.0033333333    3.9029755  0.011222434    109.60561    647.56629 
   29600    335.22856   0.27094959    8.8030177   0.29634615 0.0033333333      3.76697  0.010774098    109.73034    646.63061 
   29700    336.23829   0.27026783    8.8349887   0.29634615 0.0033333333    4.3681521  0.010377245    110.28048    645.68434 
   29800    337.26606   0.27068432    8.8681173   0.29634615 0.0033333333    5.0319996 0.0090133041    111.67681    644.71162 
   29900    338.24508   0.27090865    8.8993794   0.29634615 0.0033333333    4.3185582  0.010020519     110.6753    643.75842 
   30000    339.22299   0.27099287    8.9305889   0.29634615 0.0033333333    3.7996197 0.0093133622    106.72106    642.88366 
   30100    340.21105   0.27088383    8.9620042   0.29634615 0.0033333333    4.3936208  0.011085421    107.45965    641.99353 
   30200    341.25573   0.27046769    8.9952795   0.29634615 0.0033333333    4.2883893  0.010127575    107.76267    641.09708 
   30300    342.29482   0.27041549    9.0278861   0.29634615 0.0033333333    4.5042338   0.01021559    110.03049    640.15644 
   30400    343.33497   0.27043806    9.0622295   0.29634615 0.0033333333     4.516188  0.010711191    109.63686    639.22347 
   30500    344.37274   0.27074772    9.0959819   0.29634615 0.0033333333    4.1921504  0.010560801    109.14112    638.30008 
   30600     345.3896   0.27111984    9.1285734   0.29634615 0.0033333333    4.3035143  0.010459675    109.53202    637.36932 
   30700    346.38194   0.27093201     9.160307   0.29634615 0.0033333333    4.3617009 0.0097849531    109.83194    636.43304 
   30800    347.32789   0.27001087    9.1908632   0.29634615 0.0033333333    4.2276472 0.0099517999    109.87335    635.49617 
   30900    348.31311   0.27116071    9.2227415   0.29634615 0.0033333333    3.9121761  0.011148595    107.51472    634.60412 
   31000    349.35618   0.27008003    9.2568264   0.29634615 0.0033333333     3.924484  0.010549791    108.00175    633.70248 
   31100    350.40383   0.27094388    9.2905689   0.29634615 0.0033333333    4.7798252 0.0095470289    108.12074    632.79843 
   31200    351.42018   0.27076021    9.3223218   0.29634615 0.0033333333      3.96855  0.010522548    108.91691    631.87934 
   31300    352.42684   0.27129906    9.3537957   0.29634615 0.0033333333    4.2219011 0.0096570252    109.67149    630.94639 
   31400    353.47911   0.27030972     9.387091   0.29634615 0.0033333333    4.2042353  0.011092111    109.09646    630.02408 
   31500    354.51806   0.26996733    9.4188408   0.29634615 0.0033333333    3.8942379  0.010819901    108.68243    629.10939 
   31600    355.52224   0.27170441    9.4495452   0.29634615 0.0033333333    4.2357669  0.010076518    109.14839    628.18617 
   31700    356.53292   0.27161677    9.4813632   0.29634615 0.0033333333    4.4381144  0.010005598    109.63013    627.25432 
   31800    357.58503   0.27166542    9.5148223   0.29634615 0.0033333333     4.694534  0.010375932    109.32007    626.32814 
   31900    358.61997   0.27189786    9.5467607   0.29634615 0.0033333333    3.7778564  0.010217647    108.44117    625.41786 
   32000    359.58082   0.27037471    9.5780793   0.29634615 0.0033333333    3.9056258  0.010243375    106.49558    624.54331 
   32100     360.6021   0.27036678    9.6105417   0.29634615 0.0033333333    4.3189736 0.0097912377    108.06046    623.63959 
   32200    361.61838   0.27109208    9.6413722   0.29634615 0.0033333333    3.9995896  0.010625126    108.59934    622.72607 
   32300     362.6795    0.2714771    9.6753601   0.29634615 0.0033333333    4.0186289    0.0103433    108.62586    621.81202 
   32400    363.68192   0.27092865    9.7072156   0.29634615 0.0033333333    4.0712218  0.010863123    110.52374    620.86496 
   32500    364.75255   0.27185204    9.7404627   0.29634615 0.0033333333    4.0923666  0.011112736    109.62471    619.93357 
   32600    365.79449   0.27029773    9.7738354   0.29634615 0.0033333333    4.0781485  0.010744493    107.90036    619.03244 
   32700    366.84352   0.27046951    9.8062569   0.29634615 0.0033333333    4.1219347  0.010482151    109.24641    618.10764 
   32800    367.89277   0.27045518    9.8397878   0.29634615 0.0033333333     3.702518 0.0093695915    109.21907    617.18338 
   32900    368.93519   0.26993039    9.8731631   0.29634615 0.0033333333    4.7334069  0.010257719    106.54641      616.306 
   33000    369.93336   0.27107231    9.9044726   0.29634615 0.0033333333    3.9719474 0.0097443625    104.83226    615.45942 
   33100    370.96788   0.27063361    9.9363933   0.29634615 0.0033333333    3.7955508  0.010034564    103.66614    614.63388 
   33200    372.00244   0.27025897    9.9687145   0.29634615 0.0033333333    4.8496754 0.0096557667    95.594537    613.97138 
   33300    372.98147   0.27130685    9.9987747   0.29634615 0.0033333333    4.5739075  0.010523263    94.868643     613.3226 
   33400    374.01388   0.27035579    10.031554   0.29634615 0.0033333333    4.2245582  0.010605473    102.59746    612.51307 
   33500    375.04841   0.27068281     10.06461   0.29634615 0.0033333333    4.6056833  0.010186965    103.11085    611.69291 
   33600    376.07117   0.27048208    10.096307   0.29634615 0.0033333333     3.937861  0.010175726    102.86606    610.87643 
   33700    377.10657   0.27136316    10.129221   0.29634615 0.0033333333    4.3684505  0.010673715    104.40953    610.03074 
   33800    378.15576   0.27053862    10.162979   0.29634615 0.0033333333    4.0546132  0.010455237    103.44855    609.20182 
   33900    379.20124   0.26972698    10.196354   0.29634615 0.0033333333    4.6225136 0.0093991454    104.88348     608.3463 
   34000    380.24577   0.27081821     10.22916   0.29634615 0.0033333333    4.8351504  0.010277647    102.23507    607.53815 
   34100    381.29533   0.26971674    10.262902   0.29634615 0.0033333333    4.2088966  0.010725529    103.01697    606.71466 
   34200    382.33799   0.27005529    10.295215   0.29634615 0.0033333333     4.144345 0.0099547143     103.5159     605.8813 
   34300    383.35369   0.27021831    10.326957   0.29634615 0.0033333333     3.859284  0.010314163    103.54496    605.04665 
   34400    384.37717   0.26930921     10.35946   0.29634615 0.0033333333    4.4299107  0.010683764    105.42518    604.17839 
   34500    385.39379    0.2705625    10.391218   0.29634615 0.0033333333    4.2158509  0.010679606     103.1501    603.34938 
   34600    386.44381   0.27079975    10.424037   0.29634615 0.0033333333    4.0578123  0.010136886    103.62749    602.51112 
   34700    387.49804   0.27116466    10.456663   0.29634615 0.0033333333    4.1094608  0.010608034    101.73167    601.70598 
   34800    388.53811   0.26994569    10.488224   0.29634615 0.0033333333    4.2645521 0.0096177792    104.16493    600.85678 
   34900    389.57209   0.27001831    10.519118   0.29634615 0.0033333333    4.5319745  0.010837189     102.5126    600.03583 
   35000    390.60015   0.27127444    10.549396   0.29634615 0.0033333333    4.3013943  0.010130304        103.4    599.19843 
   35100    391.64212   0.27009676    10.581756   0.29634615 0.0033333333    3.9690526 0.0096634607    102.40613    598.37766 
   35200    392.67481   0.27046724    10.614009   0.29634615 0.0033333333    3.8073588  0.009586136    103.52546    597.53656 
   35300    393.67859   0.27068691    10.644015   0.29634615 0.0033333333    3.9657202  0.010540279    104.35222    596.68073 
   35400    394.70336    0.2706224      10.6761   0.29634615 0.0033333333    4.4570543 0.0098995551    104.32629    595.82475 
   35500    395.77192   0.27085658    10.710108   0.29634615 0.0033333333    4.0201023  0.010296963    104.40157    594.96694 
   35600    396.83171   0.26959106    10.741941   0.29634615 0.0033333333    4.0426868  0.011387182    105.21288    594.09521 
   35700    397.86045    0.2708877    10.774233   0.29634615 0.0033333333    4.0689416  0.010088722    104.12004      593.241 
   35800    398.88472   0.27061496    10.805908   0.29634615 0.0033333333    4.5321776 0.0097846226    103.40214    592.39816 
   35900    399.87788   0.27162048    10.835748   0.29634615 0.0033333333    3.7465831 0.0090222563    102.97281    591.56182 
   36000    400.83063   0.27021589    10.865586   0.29634615 0.0033333333    4.4310559  0.010355399    101.66952    590.74687 
   36100    401.85349   0.27083091    10.897152   0.29634615 0.0033333333    4.2394282  0.010567441    104.09619     589.8904 
   36200    402.82127   0.27145716    10.926969   0.29634615 0.0033333333     4.505767 0.0096100754    103.74422    589.03909 
   36300    403.84174   0.27037802    10.959424   0.29634615 0.0033333333    4.1618046  0.010799699    103.13255     588.1972 
   36400    404.89652   0.26985265    10.991892   0.29634615 0.0033333333    3.6517722 0.0098493559     102.2334    587.36951 
   36500    405.92294   0.27111628    11.022824   0.29634615 0.0033333333    4.2739633  0.010952842    102.20507    586.54146 
   36600    406.97454   0.27144147    11.054546   0.29634615 0.0033333333    3.7368366  0.011005273     104.7837    585.67088 
   36700    408.02571    0.2714099    11.086834   0.29634615 0.0033333333    4.4884121  0.010591947    105.20876     584.7932 
   36800    409.04938   0.27045701    11.118167   0.29634615 0.0033333333    4.5172028  0.010173097    103.26792     583.9458 
   36900    410.02234   0.27146326    11.147715   0.29634615 0.0033333333    4.3840577 0.0096946869     102.4503    583.11096 
   37000    411.01368   0.27031814    11.177953   0.29634615 0.0033333333    5.1965297 0.0095119767    102.44927    582.27537 
   37100    412.01468   0.27111234    11.208081   0.29634615 0.0033333333    4.0935379  0.010316959    104.51273    581.40635 
   37200    413.05553     0.271521    11.239469   0.29634615 0.0033333333    4.7026639  0.010153477    104.50042    580.53705 
   37300    414.02265    0.2715231    11.269007   0.29634615 0.0033333333    4.9026178   0.01003299    103.30035    579.68596 
   37400    415.03813   0.27010829    11.299743   0.29634615 0.0033333333    4.2129001  0.010430987    101.60588    578.86128 
   37500    416.06516   0.27071771    11.329404   0.29634615 0.0033333333     4.095026  0.010806307     104.1272    577.99602 
   37600    417.10317   0.27064289    11.360547   0.29634615 0.0033333333    4.6171954   0.01016435    103.95702    577.13287 
   37700    418.15018   0.27177549    11.391489   0.29634615 0.0033333333    4.2990799  0.010808324    103.38855    576.27793 
   37800    419.17029   0.27096346    11.422229   0.29634615 0.0033333333    4.1791443  0.010535441    102.65918    575.43371 
   37900     420.1864   0.27094763    11.452976   0.29634615 0.0033333333    4.5472433 0.0092882369    104.02093    574.56791 
   38000    421.19493   0.27131482    11.484798   0.29634615 0.0033333333    4.1849476  0.009523705    103.39337    573.71112 
   38100    422.22807   0.27214665    11.516311   0.29634615 0.0033333333    3.8891788   0.01073697    102.56883    572.86639 
   38200    423.27833   0.27094372    11.548169   0.29634615 0.0033333333    4.0929334  0.010661443    104.13783    571.99721 
   38300    424.31254   0.27208175    11.580543   0.29634615 0.0033333333    4.3769496  0.010895046    103.60095    571.13557 
   38400    425.34961   0.27188339    11.613146   0.29634615 0.0033333333    3.8265143   0.01053565    105.95813    570.23894 
   38500    426.38214   0.27026335    11.646553   0.29634615 0.0033333333    4.0243115   0.01024678    105.14407    569.35375 
   38600    427.43024   0.27004209    11.680314   0.29634615 0.0033333333    4.5423904  0.010634442    105.49126    568.46323 
   38700    428.47764   0.27115174    11.714496   0.29634615 0.0033333333    4.3255954 0.0097172332    103.60985    567.59968 
   38800    429.46654   0.27193548     11.74657   0.29634615 0.0033333333    4.4259769  0.010105353      103.998    566.72993 
   38900    430.50851   0.27085238    11.779631   0.29634615 0.0033333333    4.1209585  0.010114068    105.10165    565.84384 
   39000    431.54271   0.27132329    11.812762   0.29634615 0.0033333333    4.2183949 0.0096463032    105.61457    564.95019 
   39100    432.58778   0.27115222    11.846777   0.29634615 0.0033333333    3.9211168  0.010459093     104.9067    564.06622 
   39200    433.57854   0.27094381    11.879041   0.29634615 0.0033333333    4.1579048  0.010553677     105.3521    563.17565 
   39300    434.58343   0.27173229    11.910908   0.29634615 0.0033333333    4.4975793  0.010504352    104.22464    562.30064 
   39400    435.59297   0.27199633    11.942613   0.29634615 0.0033333333    4.1451337  0.010383125    104.04767    561.42771 
   39500    436.59385   0.27104023    11.973855   0.29634615 0.0033333333    3.7279619  0.010393248    105.15711     560.5388 
   39600    437.61844   0.27281266    12.005285   0.29634615 0.0033333333    4.1842989 0.0086984352    105.25518    559.64823 
   39700    438.64511   0.27116348    12.037867   0.29634615 0.0033333333    3.9952131  0.010611464    106.28485    558.74337 
   39800    439.67576   0.27018115    12.070216   0.29634615 0.0033333333    4.0471499  0.010145346    105.16837    557.85345 
   39900    440.70856   0.27096499    12.103053   0.29634615 0.0033333333    4.0797666  0.010162146    104.87679     556.9672 
   40000    441.70936   0.27184895    12.134704   0.29634615 0.0033333333     4.240555 0.0099662622    103.36644    556.10151 
   40100    442.76011   0.27110633    12.168728   0.29634615 0.0033333333    4.4550597 0.0098797459    103.96037    555.22706 
   40200     443.7459   0.27138661    12.200307   0.29634615 0.0033333333    4.0089691 0.0096981108     104.3326    554.34707 
   40300    444.74933   0.27081148    12.232321   0.29634615 0.0033333333    4.7142392 0.0098799257    104.18599    553.46869 
   40400    445.70302   0.27004382    12.262323   0.29634615 0.0033333333    4.2286265 0.0097017152    105.66011    552.57015 
   40500    446.68238   0.27064445    12.293025   0.29634615 0.0033333333    4.9135904  0.010019336    104.92948    551.68105 
   40600    447.71006   0.27048752    12.325321   0.29634615 0.0033333333    4.5257037 0.0096031607    106.34135    550.77313 
   40700    448.71588   0.27002328    12.357067   0.29634615 0.0033333333    3.6894219 0.0094781281    104.20999    549.89307 
   40800    449.72633   0.27120976    12.390058   0.29634615 0.0033333333    4.2809117  0.010495803    106.78067     548.9791 
   40900    450.77651   0.27122712    12.423292   0.29634615 0.0033333333    4.1945375  0.011045103    105.90944    548.07615 
   41000    451.84294   0.27151121    12.457333   0.29634615 0.0033333333     4.154968 0.0097911867    103.60192    547.20327 
   41100    452.81202    0.2722344    12.487483   0.29634615 0.0033333333     4.198082  0.010006202    103.11595    546.33645 
   41200    453.84901   0.27177518    12.520931   0.29634615 0.0033333333     4.407845  0.010361817    105.55506    545.43715 
   41300     454.8647   0.27088454    12.552775   0.29634615 0.0033333333    4.8750754 0.0096927254    105.54937    544.53769 
   41400    455.84651    0.2706661    12.584256   0.29634615 0.0033333333    4.9949493 0.0099308036    106.38116    543.62752 
   41500    456.83587   0.27002899    12.615934   0.29634615 0.0033333333     3.997082  0.010535256     104.4549    542.74163 
   41600    457.88733   0.27174986     12.64986   0.29634615 0.0033333333    4.9333616 0.0093693382    104.53383    541.85439 
   41700    458.92698   0.27045158    12.682812   0.29634615 0.0033333333    3.9141627  0.010663831     106.5838    540.94109 
   41800    459.95605   0.27204598    12.715022   0.29634615 0.0033333333    4.1389091 0.0094547837    105.61401    540.03967 
   41900    460.98391   0.27076155    12.748084   0.29634615 0.0033333333    4.7042056 0.0099610692    104.73101     539.1491 
   42000    462.00979   0.27133477    12.780248   0.29634615 0.0033333333    3.8703035  0.010754956    104.20152    538.26493 
   42100    463.04553   0.27115803    12.813701   0.29634615 0.0033333333    4.1501089  0.010187777    102.72402    537.39938 
   42200    464.06451   0.27110301    12.845883   0.29634615 0.0033333333    4.6613699 0.0099448387     105.0949    536.50323 
   42300    465.11441   0.27138127    12.878873   0.29634615 0.0033333333    4.7352493  0.010288074    106.01194     535.5956 
   42400    466.10837   0.27024017    12.910144   0.29634615 0.0033333333    4.1786721 0.0094681661    103.85164    534.71446 
   42500    467.13305   0.27189197    12.942239   0.29634615 0.0033333333    4.1441247  0.010915719    105.25441    533.81557 
   42600    468.14251   0.27122841     12.97382   0.29634615 0.0033333333    4.1467985 0.0097012448    105.19538    532.91716 
   42700    469.15325   0.27159366    13.005266   0.29634615 0.0033333333     4.478395  0.010273325    105.06002    532.02014 
   42800    470.16958   0.27194948    13.036684   0.29634615 0.0033333333    3.9914256  0.010654757     105.7251    531.11487 
   42900    471.20247   0.27153319    13.069076   0.29634615 0.0033333333    3.6380691  0.010174325    103.86666    530.23194 
   43000    472.22697   0.27083798    13.100877   0.29634615 0.0033333333     3.978501  0.010572614    103.24669    529.35629 
   43100    473.28306   0.27132878    13.132751   0.29634615 0.0033333333    4.0827922  0.010882106    104.63656    528.46324 
   43200    474.29149   0.27063619    13.164292   0.29634615 0.0033333333    4.1318827   0.01097892    105.40905    527.56068 
   43300    475.31186   0.27169824    13.196348   0.29634615 0.0033333333    4.0311065   0.01032601    105.02569    526.66244 
   43400    476.32772   0.27172268    13.228273   0.29634615 0.0033333333    4.1609351 0.0087855115    103.54294    525.78174 
   43500    477.31072    0.2709942    13.258863   0.29634615 0.0033333333    4.1321196  0.010162517     104.8185    524.88538 
   43600    478.33631   0.27040984    13.290613   0.29634615 0.0033333333    3.9077864  0.010563907    103.94156    523.99917 
   43700    479.35475   0.27190874    13.321929   0.29634615 0.0033333333    4.0370104 0.0099079383    105.26793      523.097 
   43800    480.38138   0.27173569    13.353061   0.29634615 0.0033333333    4.4534217  0.010266802    105.90572    522.18726 
   43900    481.41678   0.27135757    13.385253   0.29634615 0.0033333333      3.86373  0.010118938    103.98653    521.29964 
   44000    482.41118   0.27098917    13.416133   0.29634615 0.0033333333    4.1453049  0.010741759    103.82082    520.41363 
   44100    483.43043   0.27074251    13.448377   0.29634615 0.0033333333    4.6862391  0.010364154    103.26322    519.53387 
   44200    484.45985   0.27155109    13.480171   0.29634615 0.0033333333    3.6486956  0.010638256     104.9341    518.63424 
   44300    485.48586   0.27149176    13.512584   0.29634615 0.0033333333    4.0064701 0.0092220736    103.37477    517.75245 
   44400    486.47354   0.27052734    13.545349   0.29634615 0.0033333333    4.3661596 0.0099162878    103.74219    516.86597 
   44500    487.52901   0.26942611    13.578524   0.29634615 0.0033333333    3.6768685  0.010304346     103.1699    515.98582 
   44600    488.57393   0.27068193    13.612517   0.29634615 0.0033333333    4.1506578  0.010609111    104.08849    515.09464 
   44700    489.62905   0.26977911     13.64568   0.29634615 0.0033333333    4.0243694  0.010539286    105.55205    514.18668 
   44800    490.65846   0.27077847    13.677812   0.29634615 0.0033333333    4.0191309 0.0097484637    103.51657    513.30149 
   44900     491.7114   0.27075262    13.710608   0.29634615 0.0033333333    4.2139074  0.010608712    103.42715    512.41696 
   45000    492.78317    0.2713385     13.74366   0.29634615 0.0033333333    4.1566118  0.011005002    103.10989    511.53571 
   45100    493.82114   0.26969425    13.776599   0.29634615 0.0033333333    4.3903901 0.0095215865    103.73477    510.64695 
   45200    494.81922   0.27076423    13.807494   0.29634615 0.0033333333    4.0554158  0.010821683    105.16951    509.74191 
   45300    495.86941   0.27072958    13.841813   0.29634615 0.0033333333    4.8286549 0.0098646491    104.67883    508.84205 
   45400    496.88475   0.27103426    13.875514   0.29634615 0.0033333333    4.0501333  0.011437389    103.78321    507.95187 
   45500    497.94556   0.27124403    13.909935   0.29634615 0.0033333333      4.34265 0.0099733948    102.95552    507.07064 
   45600     498.9636    0.2708097    13.943094   0.29634615 0.0033333333    4.2996405  0.011185566    104.75285    506.16913 
   45700    500.01409   0.27077982    13.975933   0.29634615 0.0033333333    4.2496393  0.009798669    104.90725    505.26572 
   45800    501.04531   0.27043005    14.009821   0.29634615 0.0033333333    4.0082668  0.010808696    104.22128    504.36952 
   45900    502.07767   0.27065827    14.043715   0.29634615 0.0033333333    5.3799687 0.0087705294    105.16331    503.46291 
   46000    503.07146   0.27048385    14.077705   0.29634615 0.0033333333    4.1203213 0.0094969589    103.37296    502.57544 
   46100     504.0903   0.27233103    14.112384   0.29634615 0.0033333333     3.900401  0.010386782    103.19482    501.68958 
   46200    505.11949   0.27208274    14.146338   0.29634615 0.0033333333    4.0278531  0.010249591    104.26734    500.79175 
   46300    506.11487   0.27047951    14.178981   0.29634615 0.0033333333     3.973102   0.00965655    102.57199    499.91204 
   46400      507.103   0.27114898    14.211231   0.29634615 0.0033333333    3.9576584  0.010777227    101.91726    499.03916 
   46500    508.13866   0.27093424    14.244259   0.29634615 0.0033333333    4.4969192 0.0098926273    103.72218    498.14616 
   46600    509.14673   0.27050176    14.276197   0.29634615 0.0033333333     3.806758  0.010131103    103.78395    497.25221 
   46700    510.16842   0.27064282    14.308991   0.29634615 0.0033333333     4.235227  0.010366993    103.01856    496.36612 
   46800    511.20303   0.27072195    14.341171   0.29634615 0.0033333333    4.2876967  0.010413586     104.0207    495.46905 
   46900    512.24144   0.27114244    14.374627   0.29634615 0.0033333333    4.4346678  0.010268892    105.50126    494.55642 
   47000    513.25445   0.27096583    14.407041   0.29634615 0.0033333333    5.4098404 0.0091282487    101.17759    493.68932 
   47100    514.25047   0.27040346    14.438547   0.29634615 0.0033333333    3.9350981  0.010082225     103.9378    492.79223 
   47200    515.20411   0.27100922    14.468318   0.29634615 0.0033333333    4.2477719 0.0087978064    103.74101     491.8969 
   47300    516.20073   0.27159932    14.499248   0.29634615 0.0033333333    4.0676209 0.0098715246    105.83688    490.98002 
   47400    517.16193   0.27214526    14.529304   0.29634615 0.0033333333    4.3473633 0.0094834421    104.46843    490.07675 
   47500     518.1521   0.27124308    14.559342   0.29634615 0.0033333333    4.5406509  0.010172431     103.0537    489.18778 
   47600    519.16923   0.27082572    14.590389   0.29634615 0.0033333333     4.159564  0.010148398    103.48283    488.29403 
   47700    520.18824   0.27043857    14.621336   0.29634615 0.0033333333    3.7619583  0.010804785    103.79127    487.39684 
   47800     521.2131   0.27154496    14.652138   0.29634615 0.0033333333    4.1709201   0.01113229    104.78752    486.48936 
   47900    522.24306   0.27180125     14.68427   0.29634615 0.0033333333    4.1737318 0.0091087445    103.16672    485.59799 
   48000    523.22757   0.27138593    14.713568   0.29634615 0.0033333333    5.0945596 0.0096276794    104.13477    484.69654 
   48100     524.2176   0.27098373    14.743861   0.29634615 0.0033333333    4.3958473  0.010086882    102.65707    483.80976 
   48200    525.25346   0.27094306    14.776659   0.29634615 0.0033333333    4.2621846 0.0098356004    104.45381    482.90461 
   48300    526.30062   0.27140528    14.810299   0.29634615 0.0033333333    3.8571288 0.0099766794    103.84917     482.0052 
   48400    527.31556   0.27171181    14.841845   0.29634615 0.0033333333    4.1881761  0.011103058    103.18469    481.11215 
   48500    528.34983   0.27128074    14.874789   0.29634615 0.0033333333    4.2656556  0.010556031    102.56629    480.22499 
   48600    529.40851   0.27121188    14.908624   0.29634615 0.0033333333    4.4530978  0.010969318    103.41412    479.32901 
   48700    530.44934   0.27082877    14.942725   0.29634615 0.0033333333     4.261382  0.010609331    104.75659    478.41969 
   48800    531.47963   0.27231585    14.975682   0.29634615 0.0033333333    4.1318793   0.01004232    102.15797    477.53566 
   48900    532.50118   0.27167769    15.007699   0.29634615 0.0033333333    4.3277332 0.0098447345    104.55822    476.62776 
   49000     533.5465   0.27246883    15.041122   0.29634615 0.0033333333     4.455146  0.010457938    101.98856    475.74474 
   49100    534.58413   0.27231317    15.074031   0.29634615 0.0033333333    3.9172254 0.0091597699    103.05284    474.85083 
   49200    535.60498   0.27199532    15.106314   0.29634615 0.0033333333    4.4512918 0.0098649149    103.01717    473.95695 
   49300    536.63374   0.27193664    15.138441   0.29634615 0.0033333333     3.906467 0.0091534235    102.83169    473.06456 
   49400    537.61745     0.270676    15.169344   0.29634615 0.0033333333    4.0440937  0.010038614    104.04571    472.16022 
   49500    538.63093   0.27150473    15.201659   0.29634615 0.0033333333    4.2598069   0.01062771    104.46078    471.25176 
   49600    539.65277   0.27161384    15.234489   0.29634615 0.0033333333    4.7258185  0.010415934    102.67805    470.35999 
   49700    540.58989   0.27161079    15.265537   0.29634615 0.0033333333    4.2234268   0.01069253    104.69187    469.44894 
   49800    541.61682   0.27223358    15.298963   0.29634615 0.0033333333    4.6670668  0.010244773    102.55265    468.55779 
   49900    542.68299   0.27163382    15.333303   0.29634615 0.0033333333    4.5812117  0.010729222     102.5112    467.66669 
   50000    543.71698   0.27062075    15.366517   0.29634615 0.0033333333    3.9678783   0.01026492    103.28361    466.76797 
   50100    544.70314    0.2699984    15.398434   0.29634615 0.0033333333    3.9849997 0.0098794205    103.05866    465.87107 
   50200    545.70608   0.27154252      15.4309   0.29634615 0.0033333333    3.9233849  0.010364575    104.35028    464.96197 
   50300    546.69796      0.26987    15.463647   0.29634615 0.0033333333    3.8174204  0.010547914    105.64726    464.04104 
   50400    547.70857   0.26991526    15.497644   0.29634615 0.0033333333    4.5300942  0.010563383    104.29716    463.13207 
   50500    548.72376   0.27068377    15.531847   0.29634615 0.0033333333    4.1824273  0.010806978      104.864    462.21783 
   50600    549.77265   0.27064714    15.566838   0.29634615 0.0033333333    4.6205293 0.0095093382    104.04821    461.31072 
   50700     550.7581   0.27039537    15.599743   0.29634615 0.0033333333    4.0770662   0.01000781     105.7628    460.38826 
   50800    551.74605    0.2705467    15.631561   0.29634615 0.0033333333    3.8237191  0.010038338    103.45253    459.48615 
   50900    552.75817   0.27193084    15.665105   0.29634615 0.0033333333    4.1202584  0.010340228    105.58782    458.56494 
   51000    553.81231   0.27061858    15.699701   0.29634615 0.0033333333    4.1862617  0.010312374    101.40989    457.68111 
   51100    554.83271    0.2707233    15.732438   0.29634615 0.0033333333    4.3789344  0.010669162    104.95657    456.76499 
   51200    555.86546   0.27148204    15.765616   0.29634615 0.0033333333    3.9523396  0.010634735    104.41366    455.85345 
   51300    556.90842   0.27011341    15.800452   0.29634615 0.0033333333    4.3638092  0.010196818    104.66844    454.93952 
   51400    557.92986   0.27201892    15.833853   0.29634615 0.0033333333    4.1126991 0.0091598273    103.50819    454.03555 
   51500    558.93002   0.27123469    15.866553   0.29634615 0.0033333333    4.7205954 0.0093327115    103.24042     453.1337 
   51600    559.93956   0.27212553    15.899616   0.29634615 0.0033333333    4.1045436  0.010882436    103.07695    452.23304 
   51700    560.97468   0.27065319    15.934312   0.29634615 0.0033333333    4.4898559  0.009950789    103.27036     451.3304 
   51800    561.99837   0.27187552    15.967309   0.29634615 0.0033333333     4.040911  0.010625393    103.92428    450.42184 
   51900    563.01873   0.27111964    16.000011   0.29634615 0.0033333333    3.9004993  0.009791238    103.90994    449.51321 
   52000     564.0619   0.27106682    16.033129   0.29634615 0.0033333333    3.8938062  0.010465932    101.06092     448.6294 
   52100    565.08986   0.27053953    16.066607   0.29634615 0.0033333333    3.7873401  0.010490484    103.08004    447.72737 
   52200    566.13271   0.27040434    16.099811   0.29634615 0.0033333333      4.47105 0.0096343745    104.01931    446.81706 
   52300    567.18308   0.27129465    16.133658   0.29634615 0.0033333333    4.3164665  0.010474936    103.47801    445.91114 
   52400    568.22385   0.27151676    16.167967   0.29634615 0.0033333333    4.1279124  0.011296604     103.0541     445.0086 
   52500    569.22939   0.27185007    16.201053   0.29634615 0.0033333333    4.1874725  0.010454352     102.8974    444.10714 
   52600    570.27774   0.27114909     16.23561   0.29634615 0.0033333333    4.0133322  0.009681994    101.97316    443.21335 
   52700    571.30979   0.27038743    16.269639   0.29634615 0.0033333333    5.0835443 0.0097078966    103.79151    442.30381 
   52800    572.29843    0.2706388    16.301807   0.29634615 0.0033333333     4.696076  0.010582984    105.61247    441.37921 
   52900     573.2529   0.27112708    16.332538   0.29634615 0.0033333333    4.9191866 0.0087378325    103.77438    440.46947 
   53000    574.11631   0.27211258    16.360936   0.29634615 0.0033333333    5.0854966 0.0086398524    101.68212     439.5771 
   53100    574.97611   0.27187848     16.38894   0.29634615 0.0033333333    5.2159842 0.0087303733    101.69837    438.68425 
   53200    575.93862   0.27268525    16.420595   0.29634615 0.0033333333    4.1592473 0.0092285071    103.83149    437.77329 
   53300    576.93211   0.27177322    16.454298   0.29634615 0.0033333333    4.5634734  0.010337512    103.97844    436.86094 
   53400    577.96649   0.27223693     16.48887   0.29634615 0.0033333333    4.6839755 0.0096941548    104.24907    435.94623 
   53500    578.99104   0.27170912    16.523099   0.29634615 0.0033333333    4.4627679 0.0095270437    103.00827     435.0414 
   53600    580.02275    0.2714353    16.557647   0.29634615 0.0033333333    4.6526043  0.010232724    103.91553    434.12898 
   53700    580.99565   0.27163775    16.589547   0.29634615 0.0033333333    5.2201867 0.0084380322    104.25757    433.21365 
   53800    581.95714   0.27222383     16.62082   0.29634615 0.0033333333    4.5388923  0.009640648    105.85304    432.28575 
   53900    582.96887   0.27136503    16.655598   0.29634615 0.0033333333    5.2861974 0.0093633869     103.3332    431.37748 
   54000    583.95169   0.27203377    16.689033   0.29634615 0.0033333333    4.4525325  0.010238412    103.18695    430.47017 
   54100    584.98366   0.27170306    16.723381   0.29634615 0.0033333333     4.352186  0.010387845    101.26387    429.57824 
   54200    586.02793   0.27311761    16.757803   0.29634615 0.0033333333    4.4382779 0.0094111614    102.27039    428.67774 
   54300    587.04525    0.2709052    16.792903   0.29634615 0.0033333333    3.9335752  0.010064757    102.05437    427.77871 
   54400    588.13215   0.27192218    16.830024   0.29634615 0.0033333333    4.3934527  0.010870269    101.99044    426.87989 
   54500    589.18274   0.27117433    16.865997   0.29634615 0.0033333333    4.8403047 0.0094309128    103.03711    425.97245 
   54600    590.18911    0.2720646    16.900498   0.29634615 0.0033333333    4.0817939  0.010028347    104.90901    425.05039 
   54700    591.22075   0.27219209    16.935152   0.29634615 0.0033333333    4.3079598  0.011216268    104.06065    424.13465 
   54800    592.27853   0.27176501    16.971405   0.29634615 0.0033333333    4.8116255 0.0098939797    104.23702     423.2174 
   54900    593.27483   0.27123199    17.004562   0.29634615 0.0033333333    4.1125589  0.010630128    104.22638    422.30008 
   55000    594.28668   0.27096581    17.038517   0.29634615 0.0033333333     3.832748  0.010419971    100.82394    421.40909 
   55100    595.30213   0.27082073    17.073036   0.29634615 0.0033333333    4.4540154  0.010623258    104.23508    420.49129 
   55200    596.32142   0.27178072    17.106236   0.29634615 0.0033333333    4.0352002 0.0098809611    104.40386    419.57208 
   55300     597.3261   0.27232801    17.139816   0.29634615 0.0033333333    4.2441461 0.0092699248    103.98545    418.65585 
   55400    598.31939   0.27160846    17.172391   0.29634615 0.0033333333    3.8698963 0.0096193929    104.09596    417.73863 
   55500    599.30786   0.27153428    17.204503   0.29634615 0.0033333333     3.965688  0.010171884    103.95864    416.82227 
   55600    600.31678   0.27203836    17.236911   0.29634615 0.0033333333    3.8085661 0.0097487787    103.02216    415.91273 
   55700    601.31689   0.27249036     17.26877   0.29634615 0.0033333333    3.9456587  0.010247156    102.96348    415.00341 
   55800    602.29345   0.27196771     17.29929   0.29634615 0.0033333333    4.3880284 0.0099722539    101.84337    414.10233 
   55900    603.29432   0.27261449    17.329641   0.29634615 0.0033333333      4.00551  0.010702023    104.01216    413.18481 
   56000    604.32729   0.27142551    17.362453   0.29634615 0.0033333333    3.7536227 0.0099613109    100.44055      412.294 
   56100    605.34915   0.27237172    17.394814   0.29634615 0.0033333333    4.4759361  0.010446832    101.50335    411.39465 
   56200    606.37846    0.2713958    17.427616   0.29634615 0.0033333333    4.1904336 0.0097829561    101.37291    410.49599 
   56300    607.39534   0.27179276    17.460128   0.29634615 0.0033333333    3.7516595  0.010543896    102.47813    409.58875 
   56400    608.42487   0.27344525    17.493257   0.29634615 0.0033333333    5.3813121 0.0088164329    104.11112    408.66944 
   56500    609.42151   0.27251032    17.525394   0.29634615 0.0033333333    3.9810032  0.009205419    102.30212    407.76306 
   56600    610.45252   0.27199237    17.559696   0.29634615 0.0033333333    3.7582232  0.011084849    103.54647    406.84742 
   56700    611.45636   0.27018076    17.592727   0.29634615 0.0033333333    3.9105606  0.010085526    103.14318    405.93449 
   56800    612.43844   0.27220876    17.623175   0.29634615 0.0033333333    4.8527399 0.0094527775    101.82895    405.03088 
   56900    613.44204     0.271531    17.655309   0.29634615 0.0033333333    3.9549916  0.011174789     105.0238    404.10436 
   57000    614.50026   0.27237634    17.690178   0.29634615 0.0033333333     4.187008 0.0095815998    102.10938    403.19826 
   57100     615.4874   0.27234909    17.721894   0.29634615 0.0033333333    4.7270823 0.0092603484     100.8867    402.30081 
   57200    616.47608    0.2712288     17.75395   0.29634615 0.0033333333    4.6676465 0.0096682422    103.56759    401.38384 
   57300    617.45833    0.2708191     17.78648   0.29634615 0.0033333333    4.1227523  0.011023659    104.96979    400.45709 
   57400    618.51073   0.27100419    17.820002   0.29634615 0.0033333333    4.5139048  0.010888394    103.07039    399.54328 
   57500    619.51314   0.27094543    17.852631   0.29634615 0.0033333333    4.3239659  0.010061726    103.55792    398.62589 
   57600    620.50528    0.2714247    17.885706   0.29634615 0.0033333333    4.0328379  0.010184632    102.55842    397.71527 
   57700    621.49626   0.27141036    17.918795   0.29634615 0.0033333333    3.6326981 0.0099242574    103.71025    396.79648 
   57800    622.50858   0.27166264    17.951621   0.29634615 0.0033333333    3.9016465 0.0098392493    103.22334    395.88085 
   57900    623.47557   0.27234444    17.983008   0.29634615 0.0033333333    4.6255518  0.010603278    103.59452    394.96252 
   58000    624.51586   0.27167408    18.016902   0.29634615 0.0033333333    4.4045311    0.0101999    101.30254    394.05984 
   58100     625.5493    0.2714865    18.050752   0.29634615 0.0033333333    4.2212714 0.0099694878    103.93801    393.13882 
   58200    626.54589   0.27230279    18.084023   0.29634615 0.0033333333    4.2441871 0.0097275485    103.27527     392.2221 
   58300    627.55466    0.2725222    18.117473   0.29634615 0.0033333333    4.4388108 0.0086147032    102.30566    391.31176 
   58400    628.54631   0.27082317    18.150874   0.29634615 0.0033333333    3.9585496  0.010265444    102.89539     390.3972 
   58500    629.58272    0.2708903    18.186175   0.29634615 0.0033333333    4.2470538  0.010675886    102.55095    389.48475 
   58600    630.62822   0.27016636    18.221868   0.29634615 0.0033333333    4.4559062  0.009860671    104.48654    388.55934 
   58700    631.60959   0.27162289    18.255071   0.29634615 0.0033333333    4.1994096  0.010281821    102.32106    387.64806 
   58800      632.625   0.27089121    18.289761   0.29634615 0.0033333333    4.5521495  0.010576567    104.82125    386.72023 
   58900    633.67216    0.2718467    18.325372   0.29634615 0.0033333333    4.4915995  0.010284325    102.76225    385.80565 
   59000    634.67569   0.27095685     18.35968   0.29634615 0.0033333333     4.128879  0.010707831    102.78917    384.89069 
   59100     635.7315   0.27208947    18.395162   0.29634615 0.0033333333    4.6926368  0.010400167    102.29708    383.97878 
   59200     636.7698   0.27153534    18.431559   0.29634615 0.0033333333    4.0462441  0.010238844    102.45493     383.0656 
   59300    637.80652   0.27117747    18.467392   0.29634615 0.0033333333    4.2521849  0.010401091    104.41543    382.13964 
   59400    638.82629   0.27121337    18.502747   0.29634615 0.0033333333    4.5481521  0.010192372    104.41813    381.21355 
   59500    639.85286   0.27197983    18.538071   0.29634615 0.0033333333     3.991452  0.010638905    101.65535    380.30507 
   59600    640.89934    0.2723056    18.574046   0.29634615 0.0033333333    4.3094956  0.010717253    104.03923    379.38106 
   59700    641.96593   0.27096573    18.610749   0.29634615 0.0033333333     3.908025   0.01083515    102.16611    378.46882 
   59800    642.99249   0.27200303    18.646263   0.29634615 0.0033333333    4.1228373  0.010318267    103.35546    377.54879 
   59900    643.99618   0.27167499     18.68071   0.29634615 0.0033333333    4.4338444  0.010473623    105.43539    376.61582 
   60000    644.99859   0.27139218    18.714918   0.29634615 0.0033333333    4.3194296  0.010344578    102.12586    375.70329 
   60100    646.03103   0.27198737    18.750064   0.29634615 0.0033333333    5.1045157 0.0088127217    100.49361     374.8011 
   60200    646.99192   0.27009366    18.782935   0.29634615 0.0033333333    3.7412317  0.010885952    104.08808    373.87588 
   60300    648.03226   0.27084331    18.818798   0.29634615 0.0033333333    3.8530179  0.010676651    102.28693    372.96168 
   60400     649.0509   0.27046059    18.853837   0.29634615 0.0033333333    4.7006583 0.0094628543    104.07398    372.03626 
   60500    650.06275   0.26993594    18.888982   0.29634615 0.0033333333    4.0828498  0.010150408    103.18959     371.1161 
   60600    651.09151   0.27118971    18.924471   0.29634615 0.0033333333     4.360802 0.0095024678    103.43934    370.19426 
   60700    652.11265   0.27161857    18.958979   0.29634615 0.0033333333    4.2771536 0.0099501506    104.94468     369.2633 
   60800    653.15055   0.27095209    18.994578   0.29634615 0.0033333333    4.2739688  0.010642308    104.80127     368.3331 
   60900    654.14919   0.27122024    19.028316   0.29634615 0.0033333333    4.2365008  0.010168879    103.23732    367.41211 
   61000    655.16355   0.27152388    19.062648   0.29634615 0.0033333333    4.1760764  0.010722971    104.16894    366.48541 
   61100     656.1899   0.27123648    19.097954   0.29634615 0.0033333333    3.9790466  0.010882378    102.57894    365.56809 
   61200    657.21935   0.27066417    19.133286   0.29634615 0.0033333333    4.4817172  0.010096072    103.72187    364.64376 
   61300     658.2093   0.26997263    19.166568   0.29634615 0.0033333333    4.4953225 0.0095880323    103.05537    363.72325 
   61400    659.20431   0.27070962    19.198937   0.29634615 0.0033333333    5.3613425 0.0092950525    103.17383    362.80187 
   61500     660.2005   0.27109359    19.232264   0.29634615 0.0033333333    4.4810325  0.010248603    101.94783    361.88763 
   61600     661.1669   0.27194317     19.26482   0.29634615 0.0033333333     4.061957 0.0099339778    102.91836    360.96741 
   61700    662.20034   0.27055658    19.299438   0.29634615 0.0033333333    4.1498329 0.0098121047    102.63408    360.04869 
   61800    663.22746   0.27002871    19.333816   0.29634615 0.0033333333    4.3118259  0.010404311    103.51529    359.12466 
   61900    664.25394   0.27062391    19.367168   0.29634615 0.0033333333    4.5706274 0.0099972353    103.19289    358.20236 
   62000    665.24611   0.27037869    19.400049   0.29634615 0.0033333333    4.5730959 0.0092880993    103.85876     357.2761 
   62100    666.25332   0.27096443    19.433219   0.29634615 0.0033333333    4.4312911 0.0099749668    102.66782    356.35654 
   62200    667.28008   0.27005916    19.467449   0.29634615 0.0033333333    4.5319758  0.010043617    105.05724    355.42334 
   62300    668.31322   0.27017889    19.502852   0.29634615 0.0033333333    4.2255096 0.0098858511     104.4114    354.49364 
   62400    669.31398   0.27135437    19.536727   0.29634615 0.0033333333    4.0850014  0.010153382    103.88541    353.56677 
   62500    670.32736   0.27095669    19.571773   0.29634615 0.0033333333    3.9793672  0.010262733    104.52302    352.63627 
   62600    671.34293    0.2716333    19.606284   0.29634615 0.0033333333    4.1793119  0.010489427    104.30377    351.70688 
   62700    672.39955   0.27039386    19.642562   0.29634615 0.0033333333    4.0185012 0.0097603841    102.75253    350.78601 
   62800    673.41685   0.27180702    19.677017   0.29634615 0.0033333333     3.944913  0.010486093    104.43615    349.85569 
   62900    674.45032   0.27025332    19.711759   0.29634615 0.0033333333    4.1426081  0.010388807    103.61062    348.92977 
   63000    675.47507   0.27134292    19.746902   0.29634615 0.0033333333    4.0690359 0.0098558684    103.50413    348.00431 
   63100    676.50643   0.27079137    19.782369   0.29634615 0.0033333333    4.1816379   0.01023666    102.46952    347.08443 
   63200    677.51755   0.27105244    19.816336   0.29634615 0.0033333333    4.6552723  0.010133675    104.79807    346.15175 
   63300    678.56989   0.27059547    19.851112   0.29634615 0.0033333333    4.1880823  0.010808089    105.50416    345.21529 
   63400    679.58428   0.27085016    19.884544   0.29634615 0.0033333333    4.6067891  0.010360666    102.45943    344.29506 
   63500    680.60726   0.27048996    19.917727   0.29634615 0.0033333333    4.5115965  0.010394069    102.29194    343.37557 
   63600    681.65207   0.27040561    19.950547   0.29634615 0.0033333333    4.3802873  0.009908609    103.54711    342.44912 
   63700    682.68006   0.27025838    19.983127   0.29634615 0.0033333333    3.9221943 0.0095503089    104.27224    341.51872 
   63800    683.69935   0.27115015    20.015461   0.29634615 0.0033333333    4.5199069   0.01073365    104.11417    340.58905 
   63900    684.72101   0.26981674    20.048649   0.29634615 0.0033333333     4.718984  0.010141851    103.05127    339.66488 
   64000    685.72771   0.27099464    20.080534   0.29634615 0.0033333333    4.4233554 0.0097974557    101.92048    338.74663 
   64100    686.77413   0.27156233     20.11378   0.29634615 0.0033333333    4.2773535  0.010543028     102.1368    337.82701 
   64200    687.77909    0.2705137    20.145449   0.29634615 0.0033333333    4.1550878  0.010701105    103.96717     336.8976 
   64300    688.80792   0.27007709     20.17753   0.29634615 0.0033333333    3.9384311  0.010365356     102.3923     335.9763 
   64400    689.86187   0.27176851    20.210033   0.29634615 0.0033333333    4.0001255  0.010787763    102.79721     335.0527 
   64500     690.9301   0.26936581    20.243536   0.29634615 0.0033333333    3.7288464  0.010945443    103.37744    334.12594 
   64600    691.92849     0.271033     20.27473   0.29634615 0.0033333333    4.2116411  0.010526941    102.94824    333.20127 
   64700    692.98702   0.27119384    20.308477   0.29634615 0.0033333333    4.7027354  0.010421316     104.0795     332.2707 
   64800    694.00504    0.2702798    20.341715   0.29634615 0.0033333333    3.9778644  0.010505036    103.94373    331.34071 
   64900    695.05225   0.27064793    20.374928   0.29634615 0.0033333333    4.1319525 0.0099311205    104.94003    330.40568 
   65000    696.05937   0.27036112    20.406353   0.29634615 0.0033333333    4.5129257 0.0096755662    104.15365    329.47448 
   65100    697.02067    0.2700577    20.437954   0.29634615 0.0033333333    4.6833229 0.0088371634    103.18022    328.54803 
   65200    697.99296   0.27043441    20.469146   0.29634615 0.0033333333    4.1238509 0.0092405936    104.17362    327.61653 
   65300    698.94847   0.27123855     20.49878   0.29634615 0.0033333333    4.4776006  0.010715885      104.209    326.68477 
   65400    699.97147    0.2704111    20.531132   0.29634615 0.0033333333    4.2507031  0.010986889    103.55225    325.75614 
   65500    701.03071   0.27127107     20.56377   0.29634615 0.0033333333    4.1865572 0.0098583459    102.22283    324.83401 
   65600    702.05827   0.27133106    20.595039   0.29634615 0.0033333333    3.9629937  0.010852609    104.89867    323.89862 
   65700    703.09871   0.27092185    20.627555   0.29634615 0.0033333333    3.8775799  0.010999703     103.9807    322.96758 
   65800    704.13194   0.27120307    20.659691   0.29634615 0.0033333333    4.2104707 0.0097062955     103.7396     322.0376 
   65900     705.1715   0.27076225    20.692897   0.29634615 0.0033333333    4.2671558  0.010258371    104.83016    321.10233 
   66000     706.1994   0.27059227    20.725194   0.29634615 0.0033333333    3.8893348  0.010744772    100.94811     320.1859 
   66100    707.26026    0.2706523    20.759878   0.29634615 0.0033333333    4.0533412  0.010624092    104.26483    319.25309 
   66200    708.29132   0.27159461    20.792568   0.29634615 0.0033333333    4.3517541  0.010486352    104.17481    318.32062 
   66300     709.3356   0.27126486    20.824341   0.29634615 0.0033333333    4.1588818  0.010165831    106.42284    317.37776 
   66400    710.37444   0.27085393    20.857406   0.29634615 0.0033333333    4.3235358  0.010542534    104.43363    316.44397 
   66500    711.38397   0.26985739    20.889297   0.29634615 0.0033333333    4.0088519 0.0099029687    105.38505    315.50575 
   66600    712.39256   0.27095653    20.921942   0.29634615 0.0033333333    3.5740253  0.010152634    102.74622    314.57972 
   66700    713.44189   0.27096575    20.954956   0.29634615 0.0033333333    4.2238039  0.010858459    104.00804    313.64766 
   66800    714.48902   0.27050215    20.987879   0.29634615 0.0033333333    4.1262558  0.010696777    103.19673    312.71926 
   66900     715.5339   0.26967814    21.021815   0.29634615 0.0033333333    4.1812294  0.010056574    104.37946    311.78531 
   67000    716.55524   0.27001322    21.054832   0.29634615 0.0033333333    4.2305675   0.01038076    102.63863    310.85929 
   67100    717.59604   0.27009355    21.088486   0.29634615 0.0033333333    4.0712394  0.010239401    102.28964    309.93476 
   67200    718.61338   0.27016539    21.121354   0.29634615 0.0033333333    3.8152455 0.0094537401    103.55526    309.00423 
   67300    719.59265   0.27060776    21.152218   0.29634615 0.0033333333    4.8034573  0.010310231    104.39448    308.06983 
   67400    720.62986   0.26999334    21.185353   0.29634615 0.0033333333    4.5287065  0.010111435    103.77063    307.13815 
   67500    721.64973   0.27004911    21.218324   0.29634615 0.0033333333    4.5216072 0.0093924144    102.65295    306.21142 
   67600    722.69019   0.27064144    21.250675   0.29634615 0.0033333333     4.243401  0.010408773    103.25437    305.28183 
   67700    723.69502   0.27137751    21.281227   0.29634615 0.0033333333    4.2308493  0.010817288    105.61582     304.3418 
   67800    724.75179   0.27063515     21.31426   0.29634615 0.0033333333      4.80039   0.01023947    103.11288    303.41266 
   67900    725.77085   0.27070968    21.346376   0.29634615 0.0033333333    4.5338273   0.01020773    105.07389    302.47485 
   68000    726.78554    0.2706897    21.378401   0.29634615 0.0033333333    4.4020044  0.010196249    101.14773    301.55438 
   68100    727.83594   0.27175037    21.410502   0.29634615 0.0033333333    4.0883382  0.010207288    103.12586    300.62482 
   68200    728.85988   0.27081326    21.442464   0.29634615 0.0033333333    4.3976963    0.0108737     104.0208    299.69126 
   68300    729.91497   0.27165997    21.474313   0.29634615 0.0033333333    4.0229894  0.010408706    103.08356    298.76167 
   68400    730.92148   0.27204381    21.505756   0.29634615 0.0033333333    4.5573012 0.0093576876    104.14377     297.8274 
   68500    731.94799   0.27039481    21.537544   0.29634615 0.0033333333    3.9621897  0.010828996    103.93237    296.89396 
   68600    733.02833   0.27100379    21.570725   0.29634615 0.0033333333    4.0678531  0.011382265    102.65488    295.96591 
   68700    734.09355   0.26943256    21.604182   0.29634615 0.0033333333    4.2119173 0.0099666642    102.20589    295.03968 
   68800     735.0956   0.27112198    21.634289   0.29634615 0.0033333333    4.4551282  0.010036199    101.86172    294.11479 
   68900    736.14459   0.27012124    21.666568   0.29634615 0.0033333333    3.9528911  0.010618804     103.1165    293.18435 
   69000    737.16958   0.27153297    21.698289   0.29634615 0.0033333333    4.2923986  0.010339069    102.63622    292.25583 
   69100    738.20794   0.27121315    21.730784   0.29634615 0.0033333333    4.4295324  0.010158334    103.00462    291.32562 
   69200    739.23002   0.27100317    21.763114   0.29634615 0.0033333333    4.1366356  0.010255559    103.09874     290.3949 
   69300    740.20821   0.27076471    21.794093   0.29634615 0.0033333333    3.7389459 0.0098047063    104.76755    289.45722 
   69400    741.17583   0.27104211    21.824821   0.29634615 0.0033333333    4.3828398  0.010024765    103.81997    288.52334 
   69500    742.15505   0.27135616    21.856472   0.29634615 0.0033333333     4.223231 0.0098302787     103.7171    287.58979 
   69600    743.18704   0.27132494    21.888129   0.29634615 0.0033333333    4.7849888 0.0098552963    104.51638    286.65293 
   69700    744.20135   0.27008347    21.920379   0.29634615 0.0033333333    4.5977741  0.010650495    103.30854    285.72088 
   69800     745.2341   0.27166342    21.952333   0.29634615 0.0033333333    4.3332402  0.010541774    102.87676    284.79048 
   69900    746.20062   0.27086586    21.982988   0.29634615 0.0033333333    4.5587433 0.0096327691    104.11699    283.85497 
   70000    747.18394   0.27119164    22.013046   0.29634615 0.0033333333    4.0935141 0.0092137318     101.6539    282.92937 
   70100    748.15743   0.27087591    22.043092   0.29634615 0.0033333333    3.8979014 0.0099686828      101.442    282.00448 
   70200    749.17405   0.27116625    22.074249   0.29634615 0.0033333333    4.0373726  0.010385765    103.73811    281.07016 
   70300    750.20516   0.27112175    22.105532   0.29634615 0.0033333333    4.5658129  0.010430834    102.53959    280.14051 
   70400    751.24413    0.2711476    22.137866   0.29634615 0.0033333333    4.3257298  0.010581978    103.36389    279.20746 
   70500     752.3046   0.27016872    22.171285   0.29634615 0.0033333333     4.410376  0.010175292    103.41111    278.27412 
   70600    753.34246    0.2697135    22.203757   0.29634615 0.0033333333    3.8276727 0.0098231805    101.99992    277.34627 
   70700    754.37928   0.27158415    22.236187   0.29634615 0.0033333333     3.892151 0.0099051199    102.99924    276.41432 
   70800    755.44134   0.27047848    22.268984   0.29634615 0.0033333333    4.1610158  0.010667647    103.12999    275.48176 
   70900    756.47191   0.27097169     22.30034   0.29634615 0.0033333333    4.3880633 0.0089374297    104.46003    274.54402 
   71000    757.44091   0.27057138     22.32997   0.29634615 0.0033333333    4.1066484 0.0090295839    100.18995    273.62289 
   71100    758.46492   0.26953323    22.360821   0.29634615 0.0033333333    4.6325735 0.0099608825    99.860696    272.70289 
   71200    759.48054   0.27118224     22.39117   0.29634615 0.0033333333    4.2830136 0.0093573094    100.61405    271.77962 
   71300    760.47778   0.27172729    22.421403   0.29634615 0.0033333333    3.9106213 0.0099430282    102.42888    270.84907 
   71400    761.49725   0.27136916     22.45274   0.29634615 0.0033333333    4.5885335 0.0096231678    104.34472     269.9112 
   71500    762.47628   0.27157044    22.481772   0.29634615 0.0033333333    4.5639062  0.010751912    105.25417    268.96998 
   71600    763.52274   0.27121942    22.513731   0.29634615 0.0033333333    3.8901926 0.0098609854    104.61116    268.03106 
   71700    764.55656   0.27121863    22.544869   0.29634615 0.0033333333    4.3466819  0.010155643    103.46986    267.09624 
   71800    765.57324   0.27156209    22.575584   0.29634615 0.0033333333    4.2703627   0.01043294    104.82115    266.15645 
   71900    766.58326   0.27212521    22.605663   0.29634615 0.0033333333    4.1962739  0.010719978    103.95604    265.21971 
   72000    767.60127   0.27021331    22.636476   0.29634615 0.0033333333    4.0038143  0.010454124     101.2483    264.29292 
   72100    768.64758   0.27174171     22.66777   0.29634615 0.0033333333    4.0280981  0.010021891    103.65648    263.35707 
   72200    769.69844   0.27077412    22.699435   0.29634615 0.0033333333    4.0345318  0.010023067    103.07885    262.42323 
   72300    770.72071   0.27055712    22.730462   0.29634615 0.0033333333    3.8920472  0.010412963    103.73057    261.48695 
   72400    771.73914   0.27063532    22.760949   0.29634615 0.0033333333      4.67952  0.010447264    102.19474    260.55611 
   72500    772.77495   0.27094871     22.79218   0.29634615 0.0033333333    3.9569305 0.0098372806    103.13478    259.62176 
   72600    773.78577   0.27110076    22.822335   0.29634615 0.0033333333    4.5928547 0.0098791081    104.18827    258.68362 
   72700    774.83376   0.27030147    22.852948   0.29634615 0.0033333333    3.9743941  0.010287476    103.33236     257.7484 
   72800    775.85657    0.2702509    22.882836   0.29634615 0.0033333333    4.7421311 0.0098976922    102.83706    256.81483 
   72900    776.87774   0.26952917    22.912657   0.29634615 0.0033333333    4.0479964  0.010174456    103.62222    255.87842 
   73000    777.85064   0.27090483    22.941856   0.29634615 0.0033333333    4.1451174 0.0095963548     104.1118    254.94025 
   73100    778.86967   0.27100571    22.973296   0.29634615 0.0033333333    4.3987504  0.011184764    102.07166    254.00908 
   73200    779.84268    0.2719731    23.002208   0.29634615 0.0033333333    5.1331369 0.0089844885    102.25535    253.07714 
   73300    780.75065   0.27154195    23.029171   0.29634615 0.0033333333    4.2183494   0.01062116    104.04754    252.13893 
   73400    781.81261   0.27145647    23.061589   0.29634615 0.0033333333    4.1126742  0.010480035    104.05048    251.20065 
   73500    782.84168   0.27048463     23.09243   0.29634615 0.0033333333    4.2325993  0.010342687    102.41483    250.26785 
   73600    783.84291   0.27037803     23.12062   0.29634615 0.0033333333    4.2581843  0.010218242    103.01199     249.3329 
   73700    784.87568   0.27102881    23.149678   0.29634615 0.0033333333    3.9526465  0.010144412    102.76817    248.39867 
   73800    785.91811   0.27041012    23.180519   0.29634615 0.0033333333    4.6650887   0.01013144    104.49079    247.45864 
   73900    786.92672   0.27057181     23.21039   0.29634615 0.0033333333    4.3016602 0.0096540785     103.6001    246.52147 
   74000    787.96291   0.27098067     23.24166   0.29634615 0.0033333333    4.0510337  0.009849822    102.59979    245.58753 
   74100    789.00475   0.27057869    23.272361   0.29634615 0.0033333333     3.794952  0.010522122    101.91414    244.65577 
   74200    790.00329   0.27099881    23.301845   0.29634615 0.0033333333    4.2865071 0.0099953741    103.47116    243.71875 
   74300    791.01266   0.27043207    23.330906   0.29634615 0.0033333333    4.5565606  0.010300468    104.29441      242.779 
   74400    792.06287   0.27096787    23.361316   0.29634615 0.0033333333    3.8083307  0.010467835    104.72565    241.83785 
   74500     793.0533   0.27038573    23.389953   0.29634615 0.0033333333    3.8021239  0.010670396    104.05892    240.89876 
   74600    794.05718   0.27020998    23.419971   0.29634615 0.0033333333     4.053499  0.011114828    102.99499    239.96298 
   74700    795.11488   0.27068617    23.451227   0.29634615 0.0033333333    4.0650924 0.0098870514    102.78189     239.0278 
   74800    796.14207   0.27037424    23.481813   0.29634615 0.0033333333    3.8493849  0.010817018    102.68102    238.09283 
   74900    797.16721   0.27099047    23.511417   0.29634615 0.0033333333    4.1208141  0.010659222    104.47725    237.15215 
   75000    798.19472   0.27079059    23.540892   0.29634615 0.0033333333    4.0275848  0.010208137    101.30398    236.22142 
   75100    799.15962    0.2703034    23.568497   0.29634615 0.0033333333    3.8954363 0.0097325859    101.44138     235.2901 
   75200    800.15362    0.2707066    23.597498   0.29634615 0.0033333333    3.9046495  0.010084797    103.35148    234.35262 
   75300    801.16153   0.27133012    23.628326   0.29634615 0.0033333333    4.3412957 0.0099850744     103.0659    233.41595 
   75400    802.12716   0.27153466    23.656683   0.29634615 0.0033333333    4.2925491 0.0095931525    102.72878    232.48022 
   75500    803.13732   0.27120579    23.688344   0.29634615 0.0033333333    4.0404237  0.010927394     103.8221    231.54107 
   75600    804.17024   0.27142746    23.720975   0.29634615 0.0033333333    3.9395166  0.010201898     103.1551    230.60386 
   75700    805.17156   0.27082087    23.750984   0.29634615 0.0033333333    5.0384355  0.009214747      104.732    229.66188 
   75800    806.20872   0.27105348    23.782726   0.29634615 0.0033333333    4.2328091  0.010804123     103.5511    228.72335 
   75900    807.24195   0.27025083    23.814232   0.29634615 0.0033333333    3.8944329   0.01135214    102.15715    227.78892 
   76000    808.28811   0.27016431    23.845824   0.29634615 0.0033333333    4.0105002  0.011079375    103.10074    226.85156 
   76100    809.30688   0.27105835    23.875617   0.29634615 0.0033333333      4.37402  0.010022016    101.77114    225.91808 
   76200    810.35094   0.27043765    23.906521   0.29634615 0.0033333333     4.439148  0.010605497    103.41369     224.9796 
   76300    811.38833   0.27084045    23.937645   0.29634615 0.0033333333    4.4662127  0.010590725    104.59561    224.03766 
   76400    812.43663   0.27057242    23.968273   0.29634615 0.0033333333    4.3377172  0.010121069    101.56088     223.1045 
   76500    813.45712   0.27085539    23.997812   0.29634615 0.0033333333    3.8171287  0.010237444    103.96957     222.1642 
   76600    814.47223   0.27135906     24.02808   0.29634615 0.0033333333    4.7612364  0.010231692    102.73796    221.22736 
   76700    815.47558    0.2716472    24.057921   0.29634615 0.0033333333    4.7110815 0.0097531479    104.02991    220.28676 
   76800    816.49056   0.27147958    24.088665   0.29634615 0.0033333333    4.6069293 0.0096505639    103.86265    219.34657 
   76900    817.47749   0.27218913    24.118351   0.29634615 0.0033333333    4.0249851  0.010179066    102.83686    218.40921 
   77000    818.47201    0.2710792    24.148619   0.29634615 0.0033333333    4.0076903  0.010848911     102.5356    217.47261 
   77100     819.5182   0.27072245    24.180744   0.29634615 0.0033333333    4.2385947  0.011037534    103.16903    216.53413 
   77200    820.50224   0.27082247    24.211507   0.29634615 0.0033333333    4.3780525 0.0094149895    102.78887    215.59663 
   77300    821.49566   0.27147988    24.242462   0.29634615 0.0033333333    4.2339172 0.0098621461    103.82966    214.65617 
   77400      822.456   0.27126713    24.272422   0.29634615 0.0033333333     3.738356 0.0098118068    103.62877     213.7162 
   77500    823.45905   0.27031556    24.303752   0.29634615 0.0033333333    4.1794776  0.010175583    103.33972    212.77695 
   77600    824.46169   0.27116549    24.335047   0.29634615 0.0033333333    4.1372201 0.0095603614    102.96869    211.83864 
   77700    825.45429   0.27106279    24.366214   0.29634615 0.0033333333    4.9869519 0.0099465658    104.62671    210.89582 
   77800     826.4328   0.27121937    24.397189   0.29634615 0.0033333333    4.6807397 0.0098402405    103.69269    209.95543 
   77900    827.44674   0.27102377    24.428595   0.29634615 0.0033333333    4.1430541 0.0098890766    103.62675    209.01514 
   78000    828.48319   0.27045233    24.461383   0.29634615 0.0033333333    3.9649071 0.0094053955     102.6325    208.07743 
   78100    829.45732   0.27152773    24.492409   0.29634615 0.0033333333    5.1074228 0.0090113015    103.73521    207.13673 
   78200    830.43425   0.27152063    24.522959   0.29634615 0.0033333333    4.5981354 0.0099626656     103.8538    206.19565 
   78300    831.41237   0.27166173    24.553436   0.29634615 0.0033333333    4.5662978 0.0098050982    102.74146    205.25741 
   78400    832.39297   0.27056902    24.584333   0.29634615 0.0033333333     4.243289  0.010793754    101.58398    204.32214 
   78500    833.38998   0.27086765    24.614644   0.29634615 0.0033333333    4.3477682  0.010521206    104.16884    203.38005 
   78600    834.43838    0.2706266    24.647138   0.29634615 0.0033333333    4.5107816 0.0095743719    104.12156    202.43804 
   78700    835.44936   0.27059099    24.678172   0.29634615 0.0033333333     4.148997   0.01022637    102.82153    201.49926 
   78800    836.47417   0.27128054    24.709199   0.29634615 0.0033333333    4.1183499 0.0097403643    102.69228    200.56073 
   78900    837.47565     0.270786    24.741368   0.29634615 0.0033333333    4.2173369  0.010265305    104.29669     199.6181 
   79000    838.50479   0.27247967    24.773787   0.29634615 0.0033333333    4.3237264  0.010404358    102.98854    198.67867 
   79100    839.52693   0.27181436    24.806457   0.29634615 0.0033333333    4.2242574   0.01093525      104.715    197.73492 
   79200    840.53754   0.27125564    24.838701   0.29634615 0.0033333333    3.8867788 0.0099015632    102.39805    196.79683 
   79300    841.56982   0.27229261     24.87129   0.29634615 0.0033333333    4.1812369  0.010496333    104.20988     195.8542 
   79400    842.62584   0.27160249    24.904546   0.29634615 0.0033333333    4.2432291 0.0098161348    103.09288    194.91424 
   79500    843.65033   0.27126762    24.937952   0.29634615 0.0033333333    4.3719274 0.0096197258    103.04359    193.97431 
   79600    844.67032   0.27222244     24.97008   0.29634615 0.0033333333    3.7811923  0.010498907    102.84152     193.0348 
   79700    845.72597   0.27205436    25.004304   0.29634615 0.0033333333    4.4754738  0.010321381     103.3079    192.09408 
   79800    846.72303   0.27179348    25.035669   0.29634615 0.0033333333    4.3677752 0.0099516725    103.83969    191.15205 
   79900    847.75249   0.27151595    25.068506   0.29634615 0.0033333333    4.1101638   0.01069409    105.61044    190.20589 
   80000    848.78227   0.27191807    25.100903   0.29634615 0.0033333333    4.0318022  0.010184847    101.68338    189.26888 
   80100      849.798   0.27144358     25.13351   0.29634615 0.0033333333    4.5509333  0.010441666     103.1549    188.32827 
   80200    850.82066   0.27104954    25.166105   0.29634615 0.0033333333    4.2903748  0.010516333    103.62188    187.38651 
   80300    851.85919   0.27133814    25.199799   0.29634615 0.0033333333    4.0247356  0.010352344    103.49933    186.44497 
   80400    852.89855    0.2709434     25.23391   0.29634615 0.0033333333    4.1913169  0.010370728    103.23889    185.50396 
   80500    853.86305   0.27031729    25.265163   0.29634615 0.0033333333    4.8073148 0.0098484589     104.5637    184.55991 
   80600      854.889   0.27085437    25.298278   0.29634615 0.0033333333    4.6588882  0.010453561    104.69966    183.61553 
   80700     855.8996    0.2712195    25.330699   0.29634615 0.0033333333    4.6809212 0.0098612431    104.42226    182.67173 
   80800    856.88062   0.27107894    25.362034   0.29634615 0.0033333333    4.1821594 0.0094167348    105.81037    181.72491 
   80900    857.85377   0.27172579    25.392412   0.29634615 0.0033333333    4.3918217  0.010134777    103.60353    180.78285 
   81000    858.89107   0.27129152    25.424542   0.29634615 0.0033333333    3.9874119  0.010129908    101.42657     179.8456 
   81100    859.89795   0.27166003    25.456124   0.29634615 0.0033333333    4.4279798     0.009491    101.56873     178.9079 
   81200    860.94454   0.27178178    25.488275   0.29634615 0.0033333333    4.1737415  0.010614303    103.40107    177.96604 
   81300     861.9389   0.27117186    25.517724   0.29634615 0.0033333333    3.7901505 0.0097991267    104.60568    177.02156 
   81400    862.96101   0.27175487    25.548929   0.29634615 0.0033333333    4.3727854  0.010351414     104.5156    176.07724 
   81500    863.96066   0.27166007    25.579104   0.29634615 0.0033333333    3.8494162   0.01059287     101.9865    175.13828 
   81600    865.00282   0.27144259    25.610936   0.29634615 0.0033333333    3.9884536  0.010434236     103.1032    174.19682 
   81700     865.9931   0.27084073     25.64046   0.29634615 0.0033333333    4.7021512 0.0094859412    104.43799    173.25251 
   81800    866.92574   0.27096064    25.668362   0.29634615 0.0033333333    4.5267371   0.01000755    103.05051    172.31104 
   81900    867.91756   0.27119138    25.698143   0.29634615 0.0033333333    4.2570412 0.0090912842    103.02362    171.36956 
   82000     868.9409    0.2703765    25.728945   0.29634615 0.0033333333    4.0432572 0.0086856913    101.35512    170.43151 
   82100    869.93087   0.27025423    25.758388   0.29634615 0.0033333333    4.9805418 0.0098678313    104.50849    169.48685 
   82200     870.9551   0.27104845    25.787648   0.29634615 0.0033333333     4.050671  0.010018756     102.0504    168.54716 
   82300     871.9617    0.2712904    25.817256   0.29634615 0.0033333333    3.9006895  0.010865887    103.65574     167.6041 
   82400    873.01904   0.26986704    25.848859   0.29634615 0.0033333333    3.7143022 0.0095338431    101.88748    166.66456 
   82500    874.02772   0.27046439    25.878829   0.29634615 0.0033333333    4.6394599  0.010313346    103.43335    165.72182 
   82600     875.0625   0.27036879    25.910524   0.29634615 0.0033333333    4.2372653  0.010832366    103.44557    164.77899 
   82700    876.08253   0.27151422     25.94158   0.29634615 0.0033333333    4.4331916  0.010596541      102.748    163.83747 
   82800    877.10098   0.27101281    25.972542   0.29634615 0.0033333333    4.0325636  0.010346294    104.03303    162.89338 
   82900    878.10748   0.27130263    26.002282   0.29634615 0.0033333333    4.1889501  0.010439892    104.76865    161.94786 
   83000    879.17844   0.27042673    26.035062   0.29634615 0.0033333333    3.9369372 0.0093069335    103.57232    161.00458 
   83100    880.20581   0.27089666    26.065021   0.29634615 0.0033333333    3.9297424  0.010519431    103.23061    160.06189 
   83200    881.20954   0.27117895    26.094119   0.29634615 0.0033333333    3.9018207   0.01045608    102.71517    159.12012 
   83300    882.25091   0.27251391    26.124892   0.29634615 0.0033333333    4.3192724 0.0097656007    102.52803    158.17863 
   83400    883.29025   0.27018713    26.155408   0.29634615 0.0033333333      4.12367 0.0098976819    103.07046    157.23603 
   83500    884.33119   0.27200242    26.185659   0.29634615 0.0033333333    4.1230372 0.0092590747    101.96352    156.29546 
   83600    885.33044   0.27260093    26.214952   0.29634615 0.0033333333     4.032603 0.0099952904     103.7241    155.35152 
   83700    886.33887   0.27115246    26.244909   0.29634615 0.0033333333    4.2060865 0.0096591503    105.22605    154.40485 
   83800    887.35974   0.27154214    26.274853   0.29634615 0.0033333333     3.736891  0.010668263    103.89795    153.46052 
   83900    888.39554   0.27086271    26.304767   0.29634615 0.0033333333    4.5044796  0.010228158    103.55815    152.51676 
   84000    889.38677   0.27104242    26.332298   0.29634615 0.0033333333    3.8544462 0.0091376755    102.73819    151.57441 
   84100    890.38772   0.27134415     26.36078   0.29634615 0.0033333333     4.397029 0.0091094976    102.02937    150.63326 
   84200    891.38532   0.27130921    26.389745   0.29634615 0.0033333333    4.4489605  0.010775978    103.21674    149.68991 
   84300    892.41616   0.27204476    26.419964   0.29634615 0.0033333333    4.0668988  0.010895903    102.45756    148.74783 
   84400    893.46355   0.27193197    26.451747   0.29634615 0.0033333333    4.3088321  0.010371022    104.42793    147.80227 
   84500    894.51897   0.27074409    26.483428   0.29634615 0.0033333333    4.3646249   0.01047823     103.0979    146.85895 
   84600    895.56122   0.27197738    26.513996   0.29634615 0.0033333333    4.1193078 0.0096387527    104.23506    145.91364 
   84700    896.57329   0.27118405    26.545665   0.29634615 0.0033333333      4.25322   0.01089726    102.67205    144.97093 
   84800    897.62395   0.27253771    26.577402   0.29634615 0.0033333333    4.3534479 0.0098324329    101.94657    144.02939 
   84900    898.62812   0.27238664    26.607038   0.29634615 0.0033333333    4.7409701 0.0095441848    103.53821    143.08508 
   85000    899.60008   0.27093768    26.636164   0.29634615 0.0033333333    4.1630669    0.0100233    102.28318    142.14281 
   85100    900.58197   0.27057782     26.66576   0.29634615 0.0033333333    3.9389027 0.0092614786    101.66154     141.2015 
   85200     901.5739   0.27128669    26.695191   0.29634615 0.0033333333    3.6742632  0.010428236    101.48689    140.26038 
   85300     902.6268   0.27156163    26.727235   0.29634615 0.0033333333    4.3219736 0.0093047109    102.81233    139.31697 
   85400    903.62874   0.27016153    26.757744   0.29634615 0.0033333333    3.8449626  0.010125524    103.53415    138.37234 
   85500    904.65776   0.27117733    26.788894   0.29634615 0.0033333333    3.9163048  0.010786311    104.27909    137.42648 
   85600    905.67542    0.2705561     26.82073   0.29634615 0.0033333333    3.7247544   0.01034857    102.97832    136.48264 
   85700    906.72102   0.27093561    26.851635   0.29634615 0.0033333333    3.9958138  0.010385377    102.62243    135.53929 
   85800    907.73025   0.27168048    26.882359   0.29634615 0.0033333333    3.7887534 0.0099874253    102.85133    134.59551 
   85900    908.79628   0.27152167    26.914686   0.29634615 0.0033333333    3.8768056  0.010826865    103.74694    133.65028 
   86000    909.81575   0.27195292    26.945424   0.29634615 0.0033333333    4.7471448 0.0099288982    102.07185    132.70759 
   86100    910.79966   0.27296679    26.974392   0.29634615 0.0033333333    4.2459724  0.010514688    104.21791    131.76155 
   86200    911.82525   0.27180461    27.006304   0.29634615 0.0033333333    3.7561989  0.010680004    103.54422    130.81649 
   86300    912.81981   0.27109935    27.035694   0.29634615 0.0033333333    3.7011564  0.010084632    103.68969    129.87115 
   86400    913.84567   0.27031661    27.067266   0.29634615 0.0033333333     3.947802 0.0097194916    104.50651    128.92459 
   86500    914.85972   0.27160789     27.09816   0.29634615 0.0033333333    3.9384943   0.01086326    104.27683    127.97834 
   86600    915.85745   0.27106726    27.129292   0.29634615 0.0033333333    4.2184394  0.010134005     103.5157    127.03314 
   86700    916.88466   0.27112075    27.160435   0.29634615 0.0033333333    3.8519193 0.0095192765    103.35393    126.08813 
   86800    917.89748    0.2707164     27.19113   0.29634615 0.0033333333    4.3114762  0.011461302    104.47488    125.14149 
   86900    918.93632   0.27160616    27.222354   0.29634615 0.0033333333    4.0512091 0.0096279416    104.08717    124.19536 
   87000    919.93787   0.27117935    27.253911   0.29634615 0.0033333333    3.9108203 0.0099198082    101.25815    123.25321 
   87100    920.96307    0.2722044    27.286365   0.29634615 0.0033333333    4.0153883  0.010881077    102.27383     122.3095 
   87200    921.99518   0.27177062     27.31788   0.29634615 0.0033333333    4.3781859   0.01052569    103.10918    121.36455 
   87300    923.02296    0.2719772     27.34968   0.29634615 0.0033333333    4.3230328  0.010373073    104.54475    120.41761 
   87400    924.05707   0.27157861    27.381788   0.29634615 0.0033333333     4.816794  0.010233795    103.42899    119.47213 
   87500    925.08601   0.27185072    27.413053   0.29634615 0.0033333333    4.4061223  0.010469885    104.06618    118.52576 
   87600    926.11016   0.27141342    27.444575   0.29634615 0.0033333333     4.379989  0.010096962    105.59452    117.57739 
   87700    927.13806    0.2720642     27.47636   0.29634615 0.0033333333    4.0649548 0.0097844809    103.11541    116.63221 
   87800    928.19901   0.27106706    27.510155   0.29634615 0.0033333333    4.0802171  0.011005748    102.43929    115.68786 
   87900    929.25268   0.27106559      27.5436   0.29634615 0.0033333333    4.0226144  0.011110917    103.76123    114.74173 
   88000    930.30964   0.27175127    27.577568   0.29634615 0.0033333333    4.1763906  0.011214842    102.76701    113.79684 
   88100     931.3489   0.27191164    27.611625   0.29634615 0.0033333333    3.8173023 0.0098430406    102.94885    112.85164 
   88200    932.31773   0.27137769    27.643319   0.29634615 0.0033333333    3.9190508  0.010514365    105.24456    111.90356 
   88300    933.36711   0.27148923    27.677792   0.29634615 0.0033333333    4.1591985  0.010804054    102.65275    110.95864 
   88400    934.42046   0.27171285    27.711519   0.29634615 0.0033333333    3.6834311  0.010632695    103.57961    110.01252 
   88500    935.42766   0.27050075    27.744101   0.29634615 0.0033333333    3.9798944 0.0098519067     103.3329    109.06665 
   88600     936.4645   0.27150301    27.777714   0.29634615 0.0033333333    4.7419889 0.0098092674    104.14486    108.11976 
   88700    937.48595   0.27134291    27.810545   0.29634615 0.0033333333    3.8694596   0.01018723    104.57287    107.17234 
   88800    938.48542   0.27044541    27.842802   0.29634615 0.0033333333     3.872587 0.0097197077    102.28683     106.2276 
   88900    939.51941   0.27090988    27.876275   0.29634615 0.0033333333    3.9906762   0.01023689    104.25475    105.28048 
   89000    940.52967   0.27162527    27.908928   0.29634615 0.0033333333    4.1437186 0.0099293349    103.79839    104.33385 
   89100    941.54537   0.27157705    27.942582   0.29634615 0.0033333333    4.0694812  0.010598871    102.38653    103.38881 
   89200    942.54293   0.27143038    27.974525   0.29634615 0.0033333333    4.0278695  0.010580973    104.24648    102.44159 
   89300    943.55086   0.27065829    28.006908   0.29634615 0.0033333333    4.2466475  0.010476329    102.51941    101.49628 
   89400      944.606   0.27131845     28.04065   0.29634615 0.0033333333    3.9530454  0.010162569    103.18949    100.55015 
   89500    945.62336   0.27171457    28.073285   0.29634615 0.0033333333    4.9905445 0.0089968314     104.4284    99.602623 
   89600    946.69017   0.27071054    28.106654   0.29634615 0.0033333333    4.6084548  0.010335687    103.40425    98.656172 
   89700    947.70178   0.27135028    28.137941   0.29634615 0.0033333333    4.2060726  0.010198473    104.13141    97.708899 
   89800    948.70013   0.27204263    28.168743   0.29634615 0.0033333333    4.1878102  0.010183057    103.65295    96.762101 
   89900    949.75177   0.27073611     28.20383   0.29634615 0.0033333333    4.1194841 0.0090933258    104.36419    95.814524 
   90000     950.7453   0.27182485    28.235473   0.29634615 0.0033333333    3.9389357  0.009626214    103.19066    94.868134 
   90100    951.73842   0.27103442    28.266292   0.29634615 0.0033333333    4.5264822  0.010351306    104.49857    93.920362 
   90200    952.77989   0.27022817    28.300282   0.29634615 0.0033333333    4.2121642  0.009808823    104.01779    92.973049 
   90300    953.77944   0.27119794    28.331988   0.29634615 0.0033333333    4.4882352  0.010875099    104.41717    92.025311 
   90400    954.83817   0.27155815    28.366466   0.29634615 0.0033333333    4.1609567  0.010477757     105.8675    91.076157 
   90500    955.87059   0.27100266    28.399379   0.29634615 0.0033333333    4.4721463 0.0089935499    103.86566    90.128924 
   90600    956.85946   0.27243139    28.430534   0.29634615 0.0033333333    4.0873089 0.0095345353    104.79852    89.180768 
   90700    957.87776   0.27069747    28.462837   0.29634615 0.0033333333    4.1611854  0.010330026    105.35321    88.232083 
   90800    958.92721   0.27169224    28.496624   0.29634615 0.0033333333    4.0144345 0.0093480367    104.24604    87.284418 
   90900    959.96821   0.27074088    28.530259   0.29634615 0.0033333333     3.850631  0.011001534    104.70515    86.336307 
   91000    961.01135   0.27125501    28.564578   0.29634615 0.0033333333    4.2702769  0.011038222    102.70176    85.390023 
   91100    962.00266   0.27114085    28.597031   0.29634615 0.0033333333    4.1872541  0.009269558    103.13085    84.443284 
   91200    962.98358   0.27103498    28.628848   0.29634615 0.0033333333    4.3124318 0.0098250589    104.87873    83.494934 
   91300    964.00276   0.27118517    28.661986   0.29634615 0.0033333333    3.8926349  0.010219616    105.18897    82.546306 
   91400     965.0409   0.27099021    28.696247   0.29634615 0.0033333333    4.0644498  0.011092954    104.30543    81.598431 
   91500    966.12411   0.27102208    28.731357   0.29634615 0.0033333333    4.2747081  0.010818035    104.28147    80.650552 
   91600    967.12314   0.27151167    28.763458   0.29634615 0.0033333333    4.0676598 0.0096962192    103.50799    79.703307 
   91700    968.14725   0.26877251    28.798128   0.29634615 0.0033333333    4.1851045  0.010661266     103.8947    78.755695 
   91800    969.16539    0.2711502    28.830694   0.29634615 0.0033333333    4.5857389  0.010135248    103.25437    77.808583 
   91900     970.1948   0.27135707    28.863641   0.29634615 0.0033333333    4.2463241  0.010762163     103.0539    76.861591 
   92000    971.17168   0.27141866    28.896331   0.29634615 0.0033333333    4.2410459  0.010142159     102.4502    75.915046 
   92100    972.24456   0.27097045    28.930581   0.29634615 0.0033333333    4.1544767 0.0094445987    103.63758    74.967477 
   92200    973.28935   0.27048544    28.964111   0.29634615 0.0033333333    4.4280359  0.010908123    105.91358    74.018117 
   92300    974.35699   0.27040043    28.997918   0.29634615 0.0033333333    4.1227609  0.010807553    104.24703    73.070026 
   92400    975.37231   0.27099039     29.03076   0.29634615 0.0033333333    4.4573291 0.0097423636    105.22948    72.121175 
   92500    976.40433     0.272112    29.064471   0.29634615 0.0033333333    4.2513595  0.010253191    103.01302    71.173979 
   92600     977.4358   0.27143056    29.098785   0.29634615 0.0033333333    4.3583279 0.0098591118    104.86874    70.225359 
   92700    978.45233   0.27086793    29.131943   0.29634615 0.0033333333    4.0913479  0.010861215    105.51074    69.276272 
   92800    979.50336   0.27139152     29.16582   0.29634615 0.0033333333    4.1350918  0.011003485    104.59254    68.327833 
   92900    980.54615    0.2712135    29.199574   0.29634615 0.0033333333     4.514631  0.010975806    105.60398    67.378677 
   93000     981.5937   0.27127818     29.23327   0.29634615 0.0033333333     4.632968  0.010518581    102.94931    66.431365 
   93100    982.62965   0.27114056    29.264902   0.29634615 0.0033333333    4.5911808 0.0096961302    103.62897    65.483528 
   93200    983.65368   0.27113007    29.297724   0.29634615 0.0033333333    4.0119074   0.01013624     105.7986    64.534211 
   93300    984.70229   0.27178931    29.332156   0.29634615 0.0033333333    4.4653496  0.010863195     102.8867    63.586824 
   93400    985.76486   0.27211287     29.36721   0.29634615 0.0033333333    3.6934162  0.010639937    100.22359    62.641209 
   93500    986.80835   0.27231937    29.400395   0.29634615 0.0033333333    4.0408768  0.010304585    99.370604    61.696078 
   93600    987.86429   0.27170826    29.433963   0.29634615 0.0033333333    3.7332685 0.0099287865    100.58278    60.749987 
   93700    988.89883   0.27090746    29.466503   0.29634615 0.0033333333    3.9938421 0.0096302619    100.91357    59.803574 
   93800    989.86361   0.27230466    29.497022   0.29634615 0.0033333333      4.20711 0.0090073928    102.23746    58.856218 
   93900    990.88496   0.27197448    29.529868   0.29634615 0.0033333333    4.8240709 0.0086081754    102.85527    57.908415 
   94000    991.87554   0.27168225    29.561362   0.29634615 0.0033333333    4.5750549 0.0094489697    102.03915    56.961056 
   94100    992.86607   0.27164838    29.592274   0.29634615 0.0033333333    4.0555342 0.0093791642    101.76025    56.013796 
   94200     993.8214    0.2713779    29.622752   0.29634615 0.0033333333    4.6213482 0.0099216078    103.40204      55.0655 
   94300    994.84343   0.27162539    29.655582   0.29634615 0.0033333333    4.2933323 0.0089299686     101.2886    54.118384 
   94400     995.8759   0.27190513    29.688649   0.29634615 0.0033333333    4.1012799  0.011591566     99.95122    53.171967 
   94500    996.88818   0.27032569    29.721529   0.29634615 0.0033333333    3.9425065  0.010594022    104.76371     52.22276 
   94600    997.93555   0.27190176    29.754624   0.29634615 0.0033333333    4.8437604  0.009933439    104.25757    51.273807 
   94700    998.99568   0.27121396    29.787897   0.29634615 0.0033333333    4.0508599  0.011131892    103.31144    50.325323 
   94800     999.9953   0.27023013    29.819842   0.29634615 0.0033333333    4.4033339  0.010367304    104.71542    49.376087 
   94900    1000.9936   0.27116295    29.851761   0.29634615 0.0033333333    4.6001623  0.010080057    103.96795    48.427208 
   95000    1002.0123   0.27175375    29.884325   0.29634615 0.0033333333    3.9767317  0.010106859    102.39975    47.479076 
   95100    1003.0696   0.27154491    29.917462   0.29634615 0.0033333333    4.4728998  0.010278417    104.70314    46.529778 
   95200    1004.0582   0.27237541    29.948145   0.29634615 0.0033333333    4.0552307 0.0093344338    104.23933    45.580682 
   95300    1005.0913   0.27188061    29.980308   0.29634615 0.0033333333     4.647381  0.010492815    104.10973    44.631623 
   95400    1006.1038   0.27130895    30.012143   0.29634615 0.0033333333    3.8059451  0.010673603     105.6533    43.681864 
   95500    1007.1621   0.27074047    30.045113   0.29634615 0.0033333333    4.3110495  0.011042072    102.45691    42.733503 
   95600    1008.1992   0.27152702    30.077816   0.29634615 0.0033333333    4.1478958  0.010285895    102.72468    41.784967 
   95700    1009.1892   0.27240454    30.109155   0.29634615 0.0033333333    4.2363463 0.0095690804    103.79795    40.835927 
   95800    1010.1508    0.2707944    30.139496   0.29634615 0.0033333333    4.3979755 0.0096184661     104.3605    39.886628 
   95900    1011.1665   0.27149694    30.171163   0.29634615 0.0033333333     4.269527  0.010785215    106.81648     38.93637 
   96000    1012.2039   0.27263458    30.203845   0.29634615 0.0033333333    3.9576656  0.010542838    101.42647    37.988213 
   96100    1013.2249   0.27205136    30.237484   0.29634615 0.0033333333    4.3123608  0.010031566    105.35398    37.038487 
   96200    1014.2546   0.27136643    30.270515   0.29634615 0.0033333333    4.3973861  0.010805523    105.33257    36.088769 
   96300    1015.3007   0.27082706    30.304096   0.29634615 0.0033333333    4.2817971 0.0098130701    104.06251    35.139497 
   96400    1016.3135    0.2702079    30.336556   0.29634615 0.0033333333    4.2427578  0.010414308    105.45296    34.189728 
   96500     1017.338   0.27192177    30.368614   0.29634615 0.0033333333    4.2916924  0.010645927    105.02669    33.240101 
   96600    1018.3568   0.27162072    30.401488   0.29634615 0.0033333333    4.5857995  0.009647488    104.35492    32.290685 
   96700    1019.3853   0.27209027    30.434915   0.29634615 0.0033333333    4.4493691  0.010319286    104.83247    31.341101 
   96800    1020.4141   0.27227891    30.467911   0.29634615 0.0033333333    4.1809377  0.010666382    103.07165    30.392048 
   96900    1021.4684   0.27090758    30.503081   0.29634615 0.0033333333    3.7626692  0.010362623    103.48676    29.442826 
   97000    1022.4868    0.2707002    30.535772   0.29634615 0.0033333333     4.444119  0.010441476     103.3249    28.493615 
   97100    1023.5255   0.27190265    30.570145   0.29634615 0.0033333333    3.9387131  0.011008905    101.76958    27.544809 
   97200    1024.5829   0.27144652    30.604412   0.29634615 0.0033333333    4.0270567  0.010470437    103.82974    26.595371 
   97300    1025.5955   0.27166318    30.637856   0.29634615 0.0033333333     4.533522  0.010433285    103.32384    25.646035 
   97400    1026.6392    0.2711212    30.673027   0.29634615 0.0033333333    4.0975517  0.010846016     102.4138    24.696892 
   97500    1027.6472   0.27148442    30.705672   0.29634615 0.0033333333    4.1723264   0.01030663    103.70797     23.74738 
   97600    1028.6563   0.27158164    30.738606   0.29634615 0.0033333333    4.0492127 0.0098583518    103.23135    22.797947 
   97700    1029.6887   0.27171063    30.773247   0.29634615 0.0033333333    4.3060522 0.0098401863    103.52758    21.848409 
   97800    1030.6953   0.27126118    30.806278   0.29634615 0.0033333333    5.0097885 0.0095503391    103.38878    20.898867 
   97900    1031.6917   0.27139861    30.839947   0.29634615 0.0033333333    4.5364439  0.010785493     103.0192    19.949364 
   98000    1032.7241   0.27066839    30.873735   0.29634615 0.0033333333    4.2194887  0.010052568    101.32667    19.000148 
   98100     1033.726   0.27126505    30.906046   0.29634615 0.0033333333    4.5932792   0.01026163    103.03785    18.050538 
   98200    1034.7627   0.27170546    30.939631   0.29634615 0.0033333333    4.3769124  0.010254996    102.95067      17.1009 
   98300     1035.773   0.27266106    30.972471   0.29634615 0.0033333333    3.9912527 0.0095517925    102.41055    16.151307 
   98400    1036.7055   0.27095796    31.001863   0.29634615 0.0033333333    4.2509533   0.00951121    103.84647    15.201439 
   98500    1037.6955   0.27081916    31.032813   0.29634615 0.0033333333    4.2410809  0.010341186    102.39533    14.251753 
   98600    1038.7355   0.27193727    31.065137   0.29634615 0.0033333333    3.8321397  0.010690386    102.04404     13.30206 
   98700    1039.7573   0.27163314    31.096942   0.29634615 0.0033333333    4.1301791  0.010367454    105.20491    12.351918 
   98800    1040.7928   0.27248971    31.129848   0.29634615 0.0033333333    4.0913746 0.0095214319    104.03567    11.401905 
   98900    1041.7797   0.27207853    31.160915   0.29634615 0.0033333333    4.1624888 0.0098130349    104.06432    10.451866 
   99000    1042.8159   0.27212497    31.193676   0.29634615 0.0033333333     4.505148  0.010327439    101.92558     9.502009 
   99100    1043.8228   0.27198791    31.226514   0.29634615 0.0033333333    4.6032018 0.0091488455    102.22022    8.5520631 
   99200    1044.8263   0.27113499    31.258672   0.29634615 0.0033333333    3.7846742  0.011389104    105.29663    7.6018296 
   99300     1045.864    0.2713365    31.291825   0.29634615 0.0033333333     4.299541  0.010219698    104.53133    6.6516461 
   99400    1046.8683   0.27027739     31.32331   0.29634615 0.0033333333    4.0740841  0.010409079    103.51355    5.7015065 
   99500    1047.8912   0.27111319    31.355097   0.29634615 0.0033333333    4.1087778  0.010771833    101.92259    4.7514106 
   99600     1048.922   0.27142384    31.386246   0.29634615 0.0033333333    4.0648788 0.0099028847    102.84139    3.8012172 
   99700    1049.9458   0.27158167    31.418261   0.29634615 0.0033333333     3.898151  0.010570516    102.93531    2.8509766 
   99800    1050.9483   0.27170307    31.449982   0.29634615 0.0033333333    4.7816105  0.010197245    102.46216    1.9007025 
   99900    1051.9077   0.27151357    31.480593   0.29634615 0.0033333333    4.2974931   0.01060551    103.84519   0.95036387 
  100000     1052.905   0.27204249    31.512283   0.29634615 0.0033333333    4.1388185  0.010933099    101.87075            0 
Loop time of 950.395 on 4 procs for 100000 steps with 187057 atoms

Performance: 99392.320 tau/day, 105.219 timesteps/s
231.4% CPU use with 1 MPI tasks x 4 OpenMP threads

MPI task timing breakdown:
Section |  min time  |  avg time  |  max time  |%varavg| %total
---------------------------------------------------------------
Pair    | 366.1      | 366.1      | 366.1      |   0.0 | 38.52
Neigh   | 13.661     | 13.661     | 13.661     |   0.0 |  1.44
Comm    | 118.99     | 118.99     | 118.99     |   0.0 | 12.52
Output  | 3.1906     | 3.1906     | 3.1906     |   0.0 |  0.34
Modify  | 377.26     | 377.26     | 377.26     |   0.0 | 39.70
Other   |            | 71.19      |            |       |  7.49

Nlocal:    187057 ave 187057 max 187057 min
Histogram: 1 0 0 0 0 0 0 0 0 0
Nghost:    67643 ave 67643 max 67643 min
Histogram: 1 0 0 0 0 0 0 0 0 0
Neighs:    0 ave 0 max 0 min
Histogram: 1 0 0 0 0 0 0 0 0 0

Total # of neighbors = 0
Ave neighs/atom = 0
Neighbor list builds = 28284
Dangerous builds = 0

Please see the log.cite file for references relevant to this simulation

Total wall time: 0:16:29
