#package gpu 1
#suffix gpu
# variable rho equal 0.03

units lj
atom_style atomic

lattice fcc 0.975
Lattice spacing in x,y,z = 1.60085 1.60085 1.60085
region box block 0 60 0 30 0 30
create_box 2 box
Created orthogonal box = (0 0 0) to (96.0513 48.0256 48.0256)
  1 by 1 by 1 MPI processor grid
create_atoms 1 box
Created 216000 atoms
  Time spent = 0.0365071 secs
mass 1 4.0
mass 2 0.5


pair_style lj/cut 2.5
pair_coeff 1 1 1.0 1.0 2.5
pair_coeff 2 2 0.5 0.88 2.5
pair_coeff 1 2 0.2 1.0 2.5
#pair_coeff 1 2 1.5 0.8 2.5
pair_modify mix geometric
neigh_modify every 1 delay 0 check yes

variable R equal 12
region cylinder1 cylinder x $(0.5*ly) $(0.5*lz) $R EDGE EDGE units box
region cylinder1 cylinder x 24.012813670346833561 $(0.5*lz) $R EDGE EDGE units box
region cylinder1 cylinder x 24.012813670346833561 24.012813670346833561 $R EDGE EDGE units box
region cylinder1 cylinder x 24.012813670346833561 24.012813670346833561 12 EDGE EDGE units box

group cylinder1 region cylinder1
41820 atoms in group cylinder1
variable V equal PI*v_R*v_R*lx
# variable rho equal 0.1
variable natoms equal $V*${rho}
variable natoms equal 43452.5639148185*${rho}
variable natoms equal 43452.5639148185*0.05
variable natoms_in_cylinder equal count(cylinder1)
variable delete_fraction equal (${natoms_in_cylinder}-${natoms})/${natoms_in_cylinder}
variable delete_fraction equal (41820-${natoms})/${natoms_in_cylinder}
variable delete_fraction equal (41820-2172.62819574093)/${natoms_in_cylinder}
variable delete_fraction equal (41820-2172.62819574093)/41820
set group cylinder1 type 2
  41820 settings made for type
delete_atoms porosity cylinder1 ${delete_fraction} 12345
delete_atoms porosity cylinder1 0.94804810627114 12345
Deleted 39733 atoms, new total = 176267
#delete_atoms region cylinder1

region cylinder2 cylinder x $(0.5*ly) $(0.5*lz) $(v_R+6) EDGE EDGE units box
region cylinder2 cylinder x 24.012813670346833561 $(0.5*lz) $(v_R+6) EDGE EDGE units box
region cylinder2 cylinder x 24.012813670346833561 24.012813670346833561 $(v_R+6) EDGE EDGE units box
region cylinder2 cylinder x 24.012813670346833561 24.012813670346833561 18 EDGE EDGE units box
region cylinder3 cylinder x $(0.5*ly) $(0.5*lz) $(v_R+11) EDGE EDGE units box
region cylinder3 cylinder x 24.012813670346833561 $(0.5*lz) $(v_R+11) EDGE EDGE units box
region cylinder3 cylinder x 24.012813670346833561 24.012813670346833561 $(v_R+11) EDGE EDGE units box
region cylinder3 cylinder x 24.012813670346833561 24.012813670346833561 23 EDGE EDGE units box
group cylinder2 region cylinder2
56087 atoms in group cylinder2
group cylinder3 region cylinder3
115847 atoms in group cylinder3

group nve region cylinder3
115847 atoms in group nve
group langevin subtract cylinder3 cylinder2
59760 atoms in group langevin
group frozen subtract all cylinder3
60420 atoms in group frozen

region force cylinder x $(0.5*ly) $(0.5*lz) $(v_R-1) EDGE EDGE units box
region force cylinder x 24.012813670346833561 $(0.5*lz) $(v_R-1) EDGE EDGE units box
region force cylinder x 24.012813670346833561 24.012813670346833561 $(v_R-1) EDGE EDGE units box
region force cylinder x 24.012813670346833561 24.012813670346833561 11 EDGE EDGE units box
group inner dynamic all region cylinder1 every 1
dynamic group inner defined
#group gas dynamic all region force every 1
group gas type 2
2087 atoms in group gas

fix nve nve nve
fix langevin langevin langevin 0.50 0.50 1.0 12345 zero yes

variable gascount equal count(gas)

variable dP equal 0.001
variable measured_rho equal mass(gas)/(PI*(v_R-1)*(v_R-1)*lx)
variable force equal v_dP/v_measured_rho
variable force equal v_dP/v_rho

velocity all create 0.1 87287
velocity frozen set 0 0 0

compute chunk all chunk/atom bin/cylinder x lower $(lx) $(0.5*ly) $(0.5*lz) 0 $(v_R+5) 30 units box
compute chunk all chunk/atom bin/cylinder x lower 96.051254681387334244 $(0.5*ly) $(0.5*lz) 0 $(v_R+5) 30 units box
compute chunk all chunk/atom bin/cylinder x lower 96.051254681387334244 24.012813670346833561 $(0.5*lz) 0 $(v_R+5) 30 units box
compute chunk all chunk/atom bin/cylinder x lower 96.051254681387334244 24.012813670346833561 24.012813670346833561 0 $(v_R+5) 30 units box
compute chunk all chunk/atom bin/cylinder x lower 96.051254681387334244 24.012813670346833561 24.012813670346833561 0 17 30 units box

compute displacement nve displace/atom
compute mean_displacement nve reduce ave c_displacement[4]

compute vmax all reduce max vx
variable volume equal count(gas)/v_V

thermo_style custom step time temp c_mean_displacement v_volume v_force c_vmax dt spcpu cpuremain
thermo 100

compute keAtom all ke/atom
dump dump all custom 1000 trajectory.bin id type x y z c_keAtom

fix flow gas addforce v_force 0.0 0.0
run 5000
No /omp style for force computation currently active
Per MPI rank memory allocation (min/avg/max) = 85.82 | 85.82 | 85.82 Mbytes
Step Time Temp c_mean_displacement v_volume v_force c_vmax Dt S/CPU CPULeft 
       0            0  0.065833019            0  0.048029387         0.02   0.77503106        0.005            0            0 
     100          0.5  0.098340516  0.061854981  0.048029387         0.02    1.6174157        0.005    92.453567    52.999636 
     200            1   0.14554352  0.096249207  0.048029387         0.02     1.802336        0.005    101.10404    49.696924 
     300          1.5   0.16974793   0.13205328  0.048029387         0.02    2.2137936        0.005    100.65184    48.006273 
     400            2    0.1873591   0.16067163  0.048029387         0.02    2.2786216        0.005    101.20648    46.601543 
     500          2.5   0.19932169   0.18283078  0.048029387         0.02    2.0631981        0.005    101.99585    45.294661 
     600            3   0.20729993   0.19775165  0.048029387         0.02    2.3930125        0.005     100.7243    44.187361 
     700          3.5   0.21296947   0.20415215  0.048029387         0.02    1.8806124        0.005    97.472929    43.316204 
     800            4   0.21818763   0.20217909  0.048029387         0.02    3.0672779        0.005    98.275362    42.362376 
     900          4.5   0.22537584   0.19395861  0.048029387         0.02    2.2659561        0.005     97.88528    41.412862 
    1000            5   0.23060732   0.18271034  0.048029387         0.02    2.3215169        0.005    97.078146    40.482904 
    1100          5.5   0.23640419   0.17081285  0.048029387         0.02    2.2633871        0.005     96.68599     39.54955 
    1200            6   0.23974826    0.1613449  0.048029387         0.02    2.4406356        0.005    97.293109    38.578943 
    1300          6.5   0.24298681   0.15576979  0.048029387         0.02    2.4994405        0.005    96.535448    37.622491 
    1400            7   0.24556901   0.15536217  0.048029387         0.02    3.2904853        0.005    97.923056    36.616945 
    1500          7.5   0.24903869   0.15837631  0.048029387         0.02    2.3934638        0.005     100.6353     35.54509 
    1600            8   0.25228063   0.16311437  0.048029387         0.02    2.6191458        0.005    99.638818    34.504122 
    1700          8.5   0.25597806   0.16796503  0.048029387         0.02    2.4143175        0.005    100.32122      33.4543 
    1800            9   0.26025294   0.17242907  0.048029387         0.02    2.7566237        0.005    100.91806    32.399886 
    1900          9.5   0.26480931    0.1757606  0.048029387         0.02    2.5301509        0.005    100.31026    31.361954 
    2000           10   0.26764404   0.17938743  0.048029387         0.02    2.5691412        0.005    100.33582    30.327744 
    2100         10.5   0.27116732   0.18296534  0.048029387         0.02    2.6506936        0.005    98.889868    29.317235 
    2200           11   0.27418432   0.18751537  0.048029387         0.02    2.7740195        0.005    100.26199    28.289048 
    2300         11.5   0.27680941   0.19370553  0.048029387         0.02    3.1892786        0.005    99.127463    27.276939 
    2400           12   0.27930224   0.20101768  0.048029387         0.02    2.8932956        0.005    101.01613    26.244673 
    2500         12.5   0.28214835   0.20779901  0.048029387         0.02     3.132911        0.005    99.178209    25.234138 
    2600           13   0.28332088   0.21422397  0.048029387         0.02    2.5412599        0.005    101.58504    24.201725 
    2700         13.5   0.28459084    0.2191169  0.048029387         0.02    2.6978728        0.005    100.20651    23.184404 
    2800           14   0.28544949   0.22282628  0.048029387         0.02     2.633606        0.005    100.47111    22.166403 
    2900         14.5   0.28785345   0.22512805  0.048029387         0.02    2.8052464        0.005    97.753715    21.170002 
    3000           15   0.28865714   0.22656103  0.048029387         0.02    2.5486226        0.005    97.502476    20.173586 
    3100         15.5    0.2899643   0.22778929  0.048029387         0.02    2.7322253        0.005    99.476942     19.16281 
    3200           16   0.29202757   0.22871041  0.048029387         0.02    2.8879738        0.005     100.5383    18.146409 
    3300         16.5   0.29302774   0.23026092  0.048029387         0.02    3.0095445        0.005    100.79995    17.129997 
    3400           17   0.29384156   0.23226443  0.048029387         0.02    2.8664721        0.005    100.55951    16.116133 
    3500         17.5   0.29510997   0.23450629  0.048029387         0.02    2.8675465        0.005    102.12355    15.096852 
    3600           18   0.29628385   0.23762329  0.048029387         0.02    2.7382545        0.005    102.51701    14.078337 
    3700         18.5   0.29676383   0.24132955  0.048029387         0.02    2.9393391        0.005    102.08363    13.063604 
    3800           19   0.29770445   0.24525348  0.048029387         0.02    2.7736331        0.005     101.5717     12.05228 
    3900         19.5   0.30020307   0.24925264  0.048029387         0.02    3.0988484        0.005    101.39295    11.042819 
    4000           20   0.30112194   0.25372998  0.048029387         0.02    3.1232998        0.005    100.15053    10.037578 
    4100         20.5   0.30283581   0.25817641  0.048029387         0.02    2.9418019        0.005    101.90211    9.0288977 
    4200           21   0.30397335   0.26335335  0.048029387         0.02    2.9360381        0.005    95.842072    8.0333387 
    4300         21.5   0.30436009   0.26815213  0.048029387         0.02    3.0391107        0.005     99.07307     7.030016 
    4400           22   0.30563077   0.27315106  0.048029387         0.02    2.9545522        0.005    100.71843    6.0241706 
    4500         22.5   0.30701951   0.27827173  0.048029387         0.02     3.543735        0.005    101.96664    5.0175516 
    4600           23   0.30710642   0.28326692  0.048029387         0.02    2.9817495        0.005    100.44628    4.0133496 
    4700         23.5   0.30819904   0.28812799  0.048029387         0.02    3.0211749        0.005     100.7961    3.0092951 
    4800           24   0.30872706   0.29287611  0.048029387         0.02    3.4979354        0.005    100.92588    2.0056853 
    4900         24.5   0.30879757   0.29754681  0.048029387         0.02    3.1269698        0.005    101.10764    1.0025611 
    5000           25   0.30912295   0.30159969  0.048029387         0.02    3.4044903        0.005    98.840697            0 
Loop time of 50.1372 on 4 procs for 5000 steps with 176267 atoms

Performance: 43081.748 tau/day, 99.726 timesteps/s
214.6% CPU use with 1 MPI tasks x 4 OpenMP threads

MPI task timing breakdown:
Section |  min time  |  avg time  |  max time  |%varavg| %total
---------------------------------------------------------------
Pair    | 16.588     | 16.588     | 16.588     |   0.0 | 33.09
Neigh   | 0.30399    | 0.30399    | 0.30399    |   0.0 |  0.61
Comm    | 4.486      | 4.486      | 4.486      |   0.0 |  8.95
Output  | 0.16819    | 0.16819    | 0.16819    |   0.0 |  0.34
Modify  | 25.26      | 25.26      | 25.26      |   0.0 | 50.38
Other   |            | 3.331      |            |       |  6.64

Nlocal:    176267 ave 176267 max 176267 min
Histogram: 1 0 0 0 0 0 0 0 0 0
Nghost:    66695 ave 66695 max 66695 min
Histogram: 1 0 0 0 0 0 0 0 0 0
Neighs:    0 ave 0 max 0 min
Histogram: 1 0 0 0 0 0 0 0 0 0

Total # of neighbors = 0
Ave neighs/atom = 0
Neighbor list builds = 493
Dangerous builds = 0

reset_timestep 0
fix vx all ave/chunk 10 10000 100000 chunk vx ave running file velocity.txt

fix dt all dt/reset 10 NULL NULL 0.05 units box

run 100000
No /omp style for force computation currently active
Per MPI rank memory allocation (min/avg/max) = 95.19 | 95.19 | 95.19 Mbytes
Step Time Temp c_mean_displacement v_volume v_force c_vmax Dt S/CPU CPULeft 
       0           25   0.30912295   0.30159969  0.048029387         0.02    3.4044903  0.013948744            0            0 
     100    26.371688   0.31024853    0.3124865  0.048029387         0.02    3.2001945   0.01401835    85.289883    1171.3005 
     200    27.655356    0.3116477   0.32235509  0.048029387         0.02    3.4158109  0.012639546    84.775579    1173.6769 
     300    28.932208   0.31440384   0.33314252  0.048029387         0.02    3.8655046  0.011113108    84.154617    1176.5753 
     400    30.201441   0.31519638    0.3445928  0.048029387         0.02    3.5618142  0.012976695    85.131451    1174.0352 
     500    31.540523   0.31542798   0.35784459  0.048029387         0.02    3.6500064  0.010635872    80.745189    1184.7395 
     600     32.76426   0.31516224   0.37083361  0.048029387         0.02    3.4018054  0.013129123    84.823172    1181.5989 
     700    34.064761   0.31943648   0.38444658  0.048029387         0.02    3.5618319  0.012783582     85.87141    1176.9773 
     800     35.32894   0.31996955   0.39690036  0.048029387         0.02    3.2606709  0.012524711    84.776299    1175.0854 
     900    36.546769   0.32098396    0.4093804  0.048029387         0.02    3.8463608  0.011858448    85.481698    1172.2799 
    1000    37.789489   0.32157419    0.4216331  0.048029387         0.02     3.601756  0.013217758    84.954037    1170.5209 
    1100     38.99098   0.32205689   0.43325851  0.048029387         0.02    4.4984559  0.010805169    83.898396    1170.1993 
    1200    40.206908   0.32124683   0.44572502  0.048029387         0.02    3.8322229  0.012569196    86.185208    1167.1288 
    1300    41.372868   0.32311468   0.45683751  0.048029387         0.02    3.9770936  0.011467902    86.355182    1164.1787 
    1400    42.536429   0.32331843   0.46954543  0.048029387         0.02    4.1887213  0.011534756     85.41153    1162.3857 
    1500    43.665252   0.32305694   0.48181468  0.048029387         0.02    3.6854864  0.012075813    85.581274    1160.5232 
    1600    44.871767   0.32492676   0.49390467  0.048029387         0.02    3.9675603  0.011481298    85.031988    1159.2117 
    1700     46.01061    0.3243444   0.50549037  0.048029387         0.02    4.1603378  0.011443542    85.039367    1157.9102 
    1800    47.151453   0.32560809   0.51687758  0.048029387         0.02     3.831924   0.01148819    85.256649    1156.4592 
    1900    48.295623   0.32531553    0.5279615  0.048029387         0.02    4.2972279  0.011164997    85.401252    1154.9348 
    2000    49.354533   0.32504374   0.53826023  0.048029387         0.02    4.9579752 0.0098603856    84.384913    1154.1369 
    2100    50.337204    0.3250832   0.54824846  0.048029387         0.02    4.9827962 0.0098070908    81.923904    1154.9617 
    2200    51.314751   0.32465464   0.55888993  0.048029387         0.02    5.0227934 0.0097273141     85.29134    1153.4582 
    2300    52.277948   0.32539909    0.5684448  0.048029387         0.02     4.822608  0.009591091    80.660514    1154.8427 
    2400     53.27536   0.32560041   0.57794084  0.048029387         0.02    4.8181311  0.010217055    83.463106    1154.3156 
    2500    54.292012   0.32557403   0.58839308  0.048029387         0.02    4.4930451 0.0099753933    85.044212    1152.8661 
    2600    55.269086   0.32475449   0.59857933  0.048029387         0.02    4.6195523  0.009320009    83.438682    1152.2852 
    2700    56.308987   0.32687771   0.60875485  0.048029387         0.02    4.3317812  0.010475658    86.084011    1150.3314 
    2800    57.389533   0.32642778   0.61980297  0.048029387         0.02    4.2910484  0.011396093    83.931117    1149.4686 
    2900    58.517165   0.32698392   0.63063705  0.048029387         0.02    4.3599948  0.011192273    83.772451    1148.6586 
    3000    59.633866   0.32598721   0.64082746  0.048029387         0.02    4.3032248    0.0110877    84.316041    1147.5742 
    3100    60.720426   0.32799225   0.65102608  0.048029387         0.02    3.8576402  0.011299591    83.028331    1147.0583 
    3200    61.779361   0.32741504   0.66143785  0.048029387         0.02    4.6952172  0.010591733    86.017966     1145.233 
    3300    62.811851   0.32783161   0.67088032  0.048029387         0.02    4.7777227  0.010083836    85.335434    1143.7204 
    3400    63.865857   0.32899969   0.68094634  0.048029387         0.02    4.2258386   0.01121316    85.584941    1142.1308 
    3500    65.006686   0.32715826   0.69240973  0.048029387         0.02    4.0567612  0.011499783    86.035329    1140.3965 
    3600    66.145113    0.3274606   0.70329349  0.048029387         0.02    4.2832576  0.011314814    85.890894    1138.7464 
    3700    67.252144   0.32891303   0.71451993  0.048029387         0.02     4.369391  0.010248531    85.518387    1137.2546 
    3800    68.278568   0.32811142   0.72502347  0.048029387         0.02    3.8688289  0.010249947    85.565753    1135.7633 
    3900    69.277606   0.32936887   0.73358851  0.048029387         0.02    4.0257132 0.0096761418     85.32875    1134.3685 
    4000    70.241708   0.32822497   0.74239708  0.048029387         0.02      3.88427 0.0087985904    83.132632     1133.728 
    4100    71.191078   0.32827482   0.75156803  0.048029387         0.02    3.8589845  0.010174728     84.35601     1132.652 
    4200     72.22068   0.32717257   0.76094323  0.048029387         0.02    4.2003177  0.010453996    85.077195    1131.3414 
    4300    73.221099   0.32863822   0.77012001  0.048029387         0.02    3.9115092  0.010060663    85.613434    1129.8734 
    4400    74.222407    0.3288277   0.78000608  0.048029387         0.02    3.9493805  0.010509835    84.906796    1128.6302 
    4500    75.306053    0.3277312   0.79013417  0.048029387         0.02    3.7539375  0.010586814    85.115592    1127.3286 
    4600    76.338708   0.32942287   0.79921991  0.048029387         0.02    4.0377895   0.01031635    85.678491    1125.8725 
    4700     77.33345   0.32904758   0.80832619  0.048029387         0.02    4.0592209 0.0093683434    85.303847    1124.5325 
    4800    78.276338     0.329119   0.81684249  0.048029387         0.02    4.0292132  0.009453871    86.722531    1122.8192 
    4900    79.245219    0.3295051    0.8255513  0.048029387         0.02    3.9049949 0.0098877145    85.325539    1121.4952 
    5000    80.244076    0.3283859   0.83427248  0.048029387         0.02    3.8222473  0.010333868    83.624703    1120.6302 
    5100    81.263341   0.32983347   0.84206065  0.048029387         0.02    4.3828025 0.0099743397    85.734096    1119.2047 
    5200    82.246366   0.32915343   0.85061308  0.048029387         0.02    4.1595143  0.009819817    84.995785    1117.9739 
    5300    83.224744   0.32895334   0.85847248  0.048029387         0.02    4.7662707  0.010059551    84.241664    1116.9333 
    5400    84.261843   0.33004895   0.86765779  0.048029387         0.02    4.5982865  0.010479264    84.868175    1115.7338 
    5500       85.326   0.32912422   0.87659111  0.048029387         0.02    4.5487974  0.010171885    84.717549     1114.571 
    5600    86.375887   0.32998301   0.88630995  0.048029387         0.02    4.4380304  0.010725191    85.841621    1113.1471 
    5700    87.433386   0.32990519   0.89555675  0.048029387         0.02    4.5211459  0.010517924    86.158405    1111.6614 
    5800    88.467066   0.33093615   0.90447566  0.048029387         0.02    4.6689447  0.010519347    84.347325    1110.5916 
    5900    89.498778   0.33012023   0.91434001  0.048029387         0.02    4.8182207 0.0095375717    84.257572    1109.5381 
    6000    90.480884   0.32946699   0.92344636  0.048029387         0.02    4.5563672  0.010025901    85.942847    1108.1155 
    6100    91.449346    0.3299978   0.93113697  0.048029387         0.02    4.3968247 0.0093232835    85.016442    1106.8966 
    6200     92.38085    0.3291036   0.93862711  0.048029387         0.02    4.6442677 0.0092450045    85.030902     1105.676 
    6300    93.307587   0.33027381   0.94549983  0.048029387         0.02    4.8474728 0.0092526104    83.359796    1104.8075 
    6400    94.238949   0.32876835   0.95292377  0.048029387         0.02    4.5715058  0.009591504    82.666289    1104.0758 
    6500    95.197496   0.32975552   0.96016914  0.048029387         0.02    4.1225208 0.0099917176    84.349038    1102.9823 
    6600    96.186785   0.32935576   0.96805665  0.048029387         0.02    4.1480798  0.010014029    85.496021    1101.6609 
    6700     97.16637   0.32982301   0.97645537  0.048029387         0.02    4.2409005 0.0092268828    84.638038    1100.5092 
    6800    98.096967   0.33024944   0.98357115  0.048029387         0.02    4.0722637 0.0096884002    84.024367    1099.4748 
    6900    99.037493   0.32978584   0.99168808  0.048029387         0.02    4.7761188 0.0090953022    84.177553    1098.4067 
    7000    99.975429   0.33002605    1.0008915  0.048029387         0.02    4.2646579 0.0097221576    82.450355    1097.6658 
    7100    100.99453   0.32887993    1.0104997  0.048029387         0.02     3.782681  0.010643726     84.76237    1096.4788 
    7200    102.03775    0.3292587    1.0194015  0.048029387         0.02    3.9838414  0.011134145    82.251109    1095.7562 
    7300    103.13794    0.3303722    1.0289726  0.048029387         0.02    4.2624641  0.011000006    83.904019    1094.7159 
    7400    104.15261   0.33012748    1.0384146  0.048029387         0.02    4.3871271 0.0096993043    84.376934     1093.588 
    7500    105.20499    0.3304288    1.0486744  0.048029387         0.02    4.5285029  0.010903792     82.96648     1092.707 
    7600    106.18852   0.32965618    1.0581796  0.048029387         0.02    4.4333687 0.0098305765    84.069857    1091.6252 
    7700    107.18884   0.33022125    1.0680695  0.048029387         0.02    4.3111133  0.010082991    85.528501    1090.2974 
    7800    108.21393   0.33050752    1.0777323  0.048029387         0.02    4.2422055  0.010307098    84.105916    1089.2075 
    7900    109.22997   0.33050694    1.0877857  0.048029387         0.02    4.1484881 0.0099150825    83.780433    1088.1688 
    8000    110.26871   0.33058418    1.0975714  0.048029387         0.02    4.0979339  0.010926517    80.213888    1087.7367 
    8100     111.3461   0.33127974    1.1079231  0.048029387         0.02    3.9616764  0.010798451     80.22515    1087.2824 
    8200    112.40841   0.33075423    1.1184138  0.048029387         0.02    3.7756839  0.010928096    85.995533    1085.8724 
    8300    113.40445   0.32979464    1.1285159  0.048029387         0.02    4.6209885 0.0090767663     86.04749    1084.4606 
    8400    114.30969   0.33119849    1.1364916  0.048029387         0.02    4.6683616 0.0089942783    84.281139    1083.3204 
    8500    115.29797    0.3294416    1.1462092  0.048029387         0.02    4.2674997 0.0094843781     85.02773     1082.067 
    8600    116.24914   0.33072845    1.1552965  0.048029387         0.02     4.421575 0.0095692722    85.629916    1080.7274 
    8700    117.27516   0.33001978    1.1657086  0.048029387         0.02    4.3230306  0.010552809    84.159143    1079.6059 
    8800    118.32562   0.32982636    1.1765675  0.048029387         0.02    4.6622686 0.0099007743    84.050011     1078.499 
    8900     119.3377   0.33003694    1.1869314  0.048029387         0.02    4.4588422  0.010129483    84.328976    1077.3498 
    9000    120.37532   0.33066714    1.1972541  0.048029387         0.02    4.4705534  0.010085755    84.353652    1076.1964 
    9100    121.44311   0.32998506    1.2082518  0.048029387         0.02    3.8555409  0.010915027    82.876004    1075.2534 
    9200    122.53955   0.33220777    1.2184345  0.048029387         0.02    4.2972813 0.0096993092    83.848583    1074.1665 
    9300    123.51385   0.33139428     1.227547  0.048029387         0.02    4.6818897 0.0094849165    84.378564    1073.0043 
    9400    124.48985   0.33121946    1.2362456  0.048029387         0.02    3.7414201 0.0096636999    84.683836    1071.8004 
    9500    125.48867   0.33073035    1.2464042  0.048029387         0.02    4.5450909  0.010573741    82.687264    1070.8687 
    9600    126.52943   0.33049798    1.2561092  0.048029387         0.02    3.9438692  0.010609703    85.100602    1069.6082 
    9700    127.51742   0.33170367    1.2649762  0.048029387         0.02    3.9091016 0.0098347078    84.281986    1068.4557 
    9800    128.51854   0.33155831    1.2739832  0.048029387         0.02    3.8335607  0.010275774    83.362381     1067.423 
    9900    129.52083   0.33048545    1.2830897  0.048029387         0.02    5.2138347 0.0084933208    85.055715    1066.1695 
   10000    130.50342   0.33021232    1.2917203  0.048029387         0.02    4.0391242  0.010163027    83.881987    1065.0657 
   10100    131.49904    0.3305085    1.3007877  0.048029387         0.02    3.8360978 0.0095903414    84.316821    1063.9054 
   10200     132.4737   0.33087223    1.3101459  0.048029387         0.02    3.9765154 0.0097984431    85.481838    1062.6023 
   10300    133.45292   0.33092228    1.3189821  0.048029387         0.02    4.2355999 0.0097795386    85.058613    1061.3525 
   10400    134.47556   0.33074824    1.3284672  0.048029387         0.02    3.8883684  0.010804352    84.612034    1060.1576 
   10500    135.58453   0.32996293    1.3375439  0.048029387         0.02    4.4519157  0.010219649    83.930496    1059.0447 
   10600    136.65043   0.33076975    1.3471632  0.048029387         0.02    4.1275591  0.010950215    84.967685    1057.8076 
   10700    137.76966   0.33057112    1.3563259  0.048029387         0.02    4.0756162  0.011509783    85.044143    1056.5629 
   10800    138.90537   0.33039791    1.3667664  0.048029387         0.02    4.0441733  0.011192386    85.287837    1055.2917 
   10900    140.01354   0.33082504    1.3765685  0.048029387         0.02     3.867012  0.010641765    84.918915    1054.0639 
   11000    141.09797   0.33059826    1.3869417  0.048029387         0.02    3.9309652  0.010904363    84.957221    1052.8328 
   11100    142.19248   0.32978903    1.3966366  0.048029387         0.02    4.1098789  0.010506156    83.998319    1051.7102 
   11200    143.28667   0.32981077    1.4063777  0.048029387         0.02    4.0557997  0.011433042    84.091701     1050.576 
   11300     144.4165   0.32891203     1.415597  0.048029387         0.02    4.1235008  0.011018855    84.439139    1049.4023 
   11400    145.52522   0.32942864     1.425642  0.048029387         0.02     4.306112 0.0090412699    85.366767    1048.1285 
   11500    146.44343   0.33052319      1.43399  0.048029387         0.02    4.1121035 0.0090083017    85.632643    1046.8285 
   11600    147.47051   0.33016194     1.442573  0.048029387         0.02    4.1248263  0.011260418    85.125075    1045.5838 
   11700    148.54081   0.33128642    1.4510457  0.048029387         0.02    4.6502403  0.010313636    84.172384    1044.4406 
   11800     149.5789   0.33192045    1.4592787  0.048029387         0.02    4.6194087  0.010264433    83.651638     1043.352 
   11900    150.61276   0.33119832    1.4676146  0.048029387         0.02     3.844046   0.01038321    84.579326    1042.1645 
   12000    151.54593   0.33075909    1.4750918  0.048029387         0.02    4.1849948 0.0087322482    84.085261     1041.028 
   12100    152.43646    0.3282376     1.483088  0.048029387         0.02    4.1318993 0.0088494197    84.062932    1039.8929 
   12200    153.30114   0.32984443    1.4902424  0.048029387         0.02    3.9622042 0.0085403829    84.354806    1038.7274 
   12300    154.30754   0.33108003    1.4984108  0.048029387         0.02    4.1146027  0.010504291    85.019044    1037.4954 
   12400    155.35648   0.33081513    1.5074411  0.048029387         0.02    4.0806917  0.010536725    85.141526    1036.2525 
   12500    156.32391    0.3304418    1.5163346  0.048029387         0.02    4.3390577 0.0094371717     85.18396    1035.0065 
   12600    157.28503   0.33154442    1.5244438  0.048029387         0.02    4.2068163 0.0093865435    84.940618     1033.785 
   12700    158.32306   0.33070431    1.5330101  0.048029387         0.02    4.2774353  0.010762827     85.23281    1032.5364 
   12800    159.38635   0.33023737    1.5414441  0.048029387         0.02    4.3380356  0.010591793    84.102948    1031.3964 
   12900    160.44108   0.33091439    1.5497665  0.048029387         0.02    4.0967962   0.01071857    84.294724    1030.2374 
   13000    161.51725   0.32982777    1.5596416  0.048029387         0.02    4.2065302  0.010825002     85.25171    1028.9888 
   13100     162.4016   0.33015802     1.566711  0.048029387         0.02    4.0255764 0.0084756385    83.879386    1027.8687 
   13200    163.25006   0.33064707     1.573139  0.048029387         0.02    3.8023759 0.0085909753    85.858209    1026.5668 
   13300     164.1765   0.32982972     1.580986  0.048029387         0.02    4.2014931  0.010340307     83.93535    1025.4409 
   13400    165.24619   0.33143746    1.5900047  0.048029387         0.02    3.8971556  0.010534523    85.597534    1024.1645 
   13500    166.30084   0.33119968    1.5990708  0.048029387         0.02    4.2264985  0.010831575    85.184686     1022.926 
   13600    167.35565   0.33055276    1.6084687  0.048029387         0.02    3.9690187  0.010737112    85.273219    1021.6808 
   13700    168.42399   0.33118681    1.6176034  0.048029387         0.02    3.9782594  0.011286918    84.860259    1020.4725 
   13800    169.47893   0.33062761    1.6268999  0.048029387         0.02    4.0549281  0.009610637       84.007    1019.3394 
   13900    170.43776   0.33154449    1.6347344  0.048029387         0.02    3.7242038 0.0095555247    84.166438    1018.1915 
   14000    171.38632   0.33038197    1.6427593  0.048029387         0.02    3.7639116  0.009301928    82.087783    1017.2279 
   14100    172.32712   0.33115516    1.6509609  0.048029387         0.02      3.84695  0.009863056    83.698261    1016.1178 
   14200    173.34436   0.33140388    1.6591317  0.048029387         0.02    4.2442162  0.010245728    85.182714    1014.8808 
   14300    174.30519   0.33114456    1.6670897  0.048029387         0.02    4.2934341 0.0096370936     85.74072    1013.5988 
   14400    175.26978   0.33017655     1.674736  0.048029387         0.02     3.791957 0.0096747279    85.834629    1012.3109 
   14500    176.21447   0.32922564    1.6827793  0.048029387         0.02    3.7924321 0.0092327518    85.330417    1011.0652 
   14600    177.17405   0.33000216    1.6913854  0.048029387         0.02    4.6541387 0.0093731478    86.006942    1009.7667 
   14700    178.12867   0.33148385    1.6996135  0.048029387         0.02    4.4976081 0.0097426574    85.232602    1008.5313 
   14800    179.11979    0.3304924    1.7088185  0.048029387         0.02    3.9985976  0.010183568    83.930983    1007.4014 
   14900     180.1299   0.32985601    1.7170497  0.048029387         0.02    4.6945111  0.010315202    85.983052    1006.1084 
   15000    181.12396   0.32972779    1.7245435  0.048029387         0.02    5.1861807 0.0093144301    84.487292    1004.9337 
   15100    182.05024   0.33110722    1.7315209  0.048029387         0.02    4.0289166  0.010758688    83.521525    1003.8359 
   15200    183.11278   0.33012929    1.7402684  0.048029387         0.02    3.8605189  0.010627801    84.067312    1002.6934 
   15300    184.14655   0.33063272     1.748744  0.048029387         0.02    3.7449278 0.0099424644    85.611529    1001.4315 
   15400    185.13291   0.32969361    1.7571906  0.048029387         0.02    3.7739547 0.0098122105    83.550075    1000.3292 
   15500    186.15773   0.33045257    1.7652122  0.048029387         0.02    3.8625403  0.011492287    85.348631     999.0881 
   15600    187.28278    0.3307947    1.7743635  0.048029387         0.02    3.6870993  0.011373748    84.960318     997.8769 
   15700    188.41624   0.32894129    1.7840643  0.048029387         0.02    3.9902295  0.011972741    83.518465    996.77524 
   15800    189.55648   0.33083763     1.793122  0.048029387         0.02    4.0632642   0.01088433    83.818288    995.64954 
   15900    190.65331   0.33132264    1.8019117  0.048029387         0.02    3.7536938  0.010595629    84.406853    994.47899 
   16000    191.72151   0.33134597    1.8103759  0.048029387         0.02    4.0712681  0.011188139    85.259994    993.24603 
   16100    192.79546   0.33112366    1.8193383  0.048029387         0.02    4.3531088  0.011356617    84.134512    992.09558 
   16200    193.90459   0.33118345    1.8283374  0.048029387         0.02    4.3713188  0.011116216    83.848365    990.96563 
   16300    195.02642   0.33292383    1.8365117  0.048029387         0.02    4.0268366  0.011242262    84.924898    989.75729 
   16400    196.12233   0.33111382    1.8449174  0.048029387         0.02    4.0393096  0.010989744    84.549574    988.57597 
   16500    197.16985   0.33054117    1.8537255  0.048029387         0.02    3.7215983  0.010474854    84.862714    987.37255 
   16600    198.13303   0.32973885    1.8616188  0.048029387         0.02    4.3094612 0.0094157768    84.764066    986.17631 
   16700    199.06912   0.33091229    1.8683712  0.048029387         0.02    4.8192348 0.0090404427    84.256014    985.01576 
   16800    200.01445   0.33156137    1.8757258  0.048029387         0.02    4.8694335 0.0093426028    84.502202    983.83777 
   16900    200.97888   0.32988144    1.8834371  0.048029387         0.02    5.1531063 0.0096298179    85.559242    982.58783 
   17000    201.94795   0.33064316    1.8906667  0.048029387         0.02    4.5180736 0.0097190803    82.364657    981.56017 
   17100    202.91209   0.33196613    1.8988438  0.048029387         0.02    4.6093353 0.0095551243    83.986881    980.41664 
   17200    203.85792    0.3320313    1.9061774  0.048029387         0.02    4.2168677 0.0095341655    84.609815    979.23036 
   17300    204.81796   0.33070224    1.9143222  0.048029387         0.02    4.2026955   0.01036362    83.570318    978.11441 
   17400    205.87749   0.33077623    1.9231087  0.048029387         0.02    4.2572608  0.010719715     83.66472    976.99112 
   17500    206.96121   0.33187117    1.9316238  0.048029387         0.02    3.7319214  0.010780585    84.969062    975.78051 
   17600    208.02966   0.33039179    1.9401861  0.048029387         0.02    3.6900344  0.012044761    84.807428    974.58079 
   17700    209.15233   0.33078347    1.9487831  0.048029387         0.02    4.1155519  0.010472552    83.398449    973.47393 
   17800    210.16618   0.32984325    1.9563927  0.048029387         0.02     4.613401 0.0098426671    80.585306    972.55933 
   17900    211.14899   0.33089729    1.9630167  0.048029387         0.02     4.547754 0.0098560255    81.665131    971.56582 
   18000    212.13793    0.3307244    1.9699882  0.048029387         0.02    4.5049327 0.0098936041    80.366848    970.65987 
   18100    213.12815   0.32995856    1.9773459  0.048029387         0.02    4.6079867 0.0096881658    82.607693    969.59744 
   18200    214.07592   0.32987272    1.9844145  0.048029387         0.02    4.1737517 0.0096394114    84.585637    968.40617 
   18300     215.0355   0.32936309    1.9918172  0.048029387         0.02    4.2054809  0.009243523    84.835989    967.19941 
   18400    216.05532     0.330169    1.9995039  0.048029387         0.02    4.2934217  0.010435328    84.019133    966.04379 
   18500    217.13263     0.330164    2.0065548  0.048029387         0.02    4.3969237  0.010151915    83.729372    964.90593 
   18600    218.19528    0.3292417    2.0142769  0.048029387         0.02    4.0856441  0.011263103    84.900161    963.69539 
   18700    219.27388   0.32934093    2.0229553  0.048029387         0.02    4.3082942   0.01002505    85.690464    962.43797 
   18800    220.36336    0.3298472    2.0316419  0.048029387         0.02    4.1185203  0.011096761    84.306093    961.26428 
   18900    221.48927   0.32935976    2.0415015  0.048029387         0.02    3.9225411  0.011218306    84.775357    960.06229 
   19000    222.58023   0.33065487    2.0505108  0.048029387         0.02    3.8482497  0.011381063    84.031151    958.90507 
   19100    223.65868   0.33093503    2.0593845  0.048029387         0.02    4.1501714   0.01072399    84.368465    957.72735 
   19200    224.71955   0.33128077    2.0680042  0.048029387         0.02    4.1343806  0.010627502    84.377359    956.54902 
   19300    225.77383   0.33111506    2.0761357  0.048029387         0.02      4.31836  0.010933601    85.855625     955.2853 
   19400     226.9069   0.33038727    2.0852482  0.048029387         0.02    3.9134569  0.010694506    84.727749    954.08702 
   19500    227.99338   0.32974557    2.0940122  0.048029387         0.02    3.9578712 0.0098352358    85.675323    952.83504 
   19600    228.97455   0.32932514    2.1022503  0.048029387         0.02    3.9420887 0.0098744849     85.66199    951.58466 
   19700    230.05996   0.33024554    2.1112496  0.048029387         0.02    3.9273258  0.010802076    85.378722    950.35092 
   19800    231.10432    0.3304117    2.1198701  0.048029387         0.02    3.9373447  0.009822213     84.87027    949.14623 
   19900    232.09945   0.33000472    2.1270021  0.048029387         0.02      3.98509    0.0109145    84.758979    947.94803 
   20000    233.18349   0.32934829    2.1359231  0.048029387         0.02    4.5329447  0.010668115    84.415466    946.76922 
   20100    234.22957   0.32995143    2.1446286  0.048029387         0.02    4.6526313  0.010113449    83.799465    945.62497 
   20200    235.26276   0.33079172    2.1528236  0.048029387         0.02    4.1572462  0.010242689    84.968562    944.41536 
   20300     236.2908    0.3305993    2.1611243  0.048029387         0.02    4.1137613  0.010460411    85.927846     943.1545 
   20400    237.27026   0.33012562    2.1689779  0.048029387         0.02    3.8637233  0.010726963    84.857512    941.95186 
   20500    238.37119   0.32995852    2.1782993  0.048029387         0.02    4.5487607  0.010973229    85.637417    940.70784 
   20600     239.4325   0.32905341    2.1865927  0.048029387         0.02    4.7245456 0.0094916486    84.417454     939.5296 
   20700    240.40699   0.33096942    2.1937112  0.048029387         0.02     4.434019 0.0099462198    86.624184     938.2357 
   20800    241.39821   0.33024126    2.2021124  0.048029387         0.02    4.6077202  0.010057351    85.129429    937.02032 
   20900    242.39958   0.33111494    2.2101137  0.048029387         0.02     4.222182 0.0098242154    83.735824    935.87932 
   21000    243.46556   0.33159448    2.2185959  0.048029387         0.02    4.2393985  0.010720132    83.803115    934.73421 
   21100    244.49615   0.33000229    2.2264881  0.048029387         0.02    4.1287498 0.0092272214    83.890224    933.58401 
   21200    245.42471   0.32967738     2.233309  0.048029387         0.02     3.832434 0.0092966058    85.661763    932.34178 
   21300    246.37007   0.32963029    2.2405825  0.048029387         0.02    4.0626072 0.0097891235    85.153211    931.12601 
   21400    247.38053   0.33010128    2.2486618  0.048029387         0.02    4.8999626 0.0098712413    86.827339    929.82747 
   21500    248.37693   0.33175928    2.2565386  0.048029387         0.02    4.5434883 0.0099460536     86.15237    928.56323 
   21600    249.38494   0.33095341    2.2636071  0.048029387         0.02    4.2205358  0.010344228    85.381798    927.33798 
   21700    250.39537   0.33110754    2.2709867  0.048029387         0.02    4.2773884  0.010038371    86.877714    926.04045 
   21800      251.409   0.32946069    2.2801609  0.048029387         0.02    4.3350731 0.0091632443    85.289155    924.82118 
   21900    252.30562    0.3302764    2.2877427  0.048029387         0.02    3.9748627 0.0088008374    84.783993    923.62725 
   22000     253.1948   0.33024999    2.2947764  0.048029387         0.02    4.0036382  0.010648695    84.304161    922.45725 
   22100    254.27113   0.33122456    2.3039517  0.048029387         0.02    4.1718242   0.01163808    84.729546    921.26611 
   22200    255.39688   0.33228744    2.3129666  0.048029387         0.02    4.2096693   0.01103713    85.982664    920.01479 
   22300    256.47107   0.33177242     2.322941  0.048029387         0.02    4.6655913  0.010514569    85.071207    918.80768 
   22400    257.55423   0.33025989    2.3324371  0.048029387         0.02    4.4806963  0.010456816    84.623694    917.62239 
   22500    258.58415   0.33143263    2.3417222  0.048029387         0.02    3.9398654  0.011037332    86.398087    916.35353 
   22600    259.69013   0.33100153    2.3512336  0.048029387         0.02    4.1085165  0.011495336    86.690429    915.07229 
   22700    260.80169   0.33111009      2.36101  0.048029387         0.02     3.787229  0.010559041    85.402278    913.85143 
   22800    261.87387   0.33105331    2.3706689  0.048029387         0.02    3.9720855  0.010514782    84.944592    912.65237 
   22900    262.88754   0.33025959    2.3793657  0.048029387         0.02    4.7777433  0.010007568    85.607126    911.42282 
   23000     263.8816   0.33161785    2.3879634  0.048029387         0.02    4.8282603 0.0099919864    82.802428    910.32627 
   23100    264.89266   0.33063348    2.3970074  0.048029387         0.02    4.7303532  0.010178354    84.967616    909.12631 
   23200    265.91327   0.33049757    2.4056125  0.048029387         0.02    4.7458543  0.010202064    85.769247    907.89013 
   23300     266.8733    0.3297264    2.4137488  0.048029387         0.02    4.8677009   0.00974622    85.227164    906.67897 
   23400    267.85185   0.33031755    2.4223922  0.048029387         0.02    4.1123153 0.0097443491    85.094145    905.47414 
   23500    268.86095   0.33078171    2.4305153  0.048029387         0.02    4.2604376  0.010864345    85.942319     904.2318 
   23600    269.91894   0.33075707    2.4405025  0.048029387         0.02    4.6072102  0.010569575    85.488946    903.01011 
   23700    270.89394   0.33167305    2.4496305  0.048029387         0.02    4.5854813  0.010640642    85.860634    901.77255 
   23800    271.93431   0.33199749    2.4587546  0.048029387         0.02    4.7437476   0.01033258    84.512997    900.59507 
   23900    272.95345   0.33092403    2.4668483  0.048029387         0.02    4.4046542  0.010262477    84.785844    899.40541 
   24000    274.04239   0.33155712    2.4756305  0.048029387         0.02    4.1234299  0.011632896    85.456514    898.18653 
   24100    275.13611   0.33075169    2.4849212  0.048029387         0.02    4.6528942  0.010339632    85.415113    896.96984 
   24200    276.18467   0.32979583    2.4943794  0.048029387         0.02    4.1831602  0.010548341    86.005443    895.72835 
   24300    277.22244   0.32904128    2.5031814  0.048029387         0.02    4.0383691  0.010369467    84.515211    894.55139 
   24400    278.21928   0.33008332    2.5115855  0.048029387         0.02    3.7350797  0.010611245     85.28305    893.34136 
   24500    279.28046   0.33158455    2.5206727  0.048029387         0.02    3.6229538  0.010199747    85.946158    892.10376 
   24600    280.40996   0.33053896    2.5311565  0.048029387         0.02    4.1876298  0.011435818    85.797073    890.87296 
   24700    281.49772   0.33150352    2.5405002  0.048029387         0.02    4.0767818  0.010926965    86.188538    889.62655 
   24800    282.57795   0.33000075    2.5498214  0.048029387         0.02    4.5714019  0.010047839    85.658544    888.40261 
   24900    283.63225   0.32848142    2.5587893  0.048029387         0.02    3.7244045  0.010687134    86.524649    887.14387 
   25000     284.6751   0.32878344    2.5675803  0.048029387         0.02    4.3891364  0.010136756    84.502849    885.96891 
   25100    285.74783    0.3307585    2.5763849  0.048029387         0.02    4.4338151  0.011015447    83.574314    884.83312 
   25200    286.80096   0.33024643    2.5851828  0.048029387         0.02    4.1247536  0.010635061    86.236774     883.5872 
   25300    287.82639   0.33087215    2.5938569  0.048029387         0.02    4.2518201 0.0097778458    83.453989    882.45612 
   25400    288.83583   0.33091616    2.6026892  0.048029387         0.02    4.2962224  0.010483586    85.823283    881.22736 
   25500    289.86871   0.33053514    2.6113238  0.048029387         0.02    4.6286715  0.010454135    86.039723    879.99053 
   25600    290.88098   0.33067899    2.6202593  0.048029387         0.02    4.5243818  0.010285833    85.856363     878.7615 
   25700    291.89301   0.33019451    2.6284524  0.048029387         0.02    4.6444749   0.01021658    85.499158    877.54704 
   25800    292.90601   0.33027985    2.6364933  0.048029387         0.02    4.3913716 0.0098593295    86.026982    876.31229 
   25900    293.77973    0.3301614    2.6431661  0.048029387         0.02    5.2051067 0.0088480547     85.93392    875.08169 
   26000    294.66342   0.32974799    2.6494566  0.048029387         0.02    5.1460488 0.0087947631    84.710431    873.89945 
   26100    295.53729   0.33040642    2.6562753  0.048029387         0.02    4.9165211 0.0088823038    85.498444    872.68642 
   26200    296.44696   0.33047167    2.6637767  0.048029387         0.02    4.6880833 0.0092578729    86.298698    871.44317 
   26300    297.36506   0.33103313    2.6708372  0.048029387         0.02    4.7611827 0.0092007953    84.548586    870.26777 
   26400    298.37002   0.32934853    2.6788707  0.048029387         0.02    4.5417377  0.010886443    85.583893    869.05243 
   26500    299.44524   0.32980766    2.6876265  0.048029387         0.02    4.7983353  0.010193426    85.219388    867.85131 
   26600    300.49157   0.32850014    2.6965156  0.048029387         0.02    4.2052075 0.0096889643    85.553291    866.63775 
   26700    301.49906   0.33007138    2.7050227  0.048029387         0.02     4.091496  0.010542077    85.435991    865.42894 
   26800    302.51017   0.33153845    2.7141233  0.048029387         0.02    4.2388386  0.010018457    84.261126    864.26499 
   26900    303.51538   0.33019024    2.7230922  0.048029387         0.02    4.2528475  0.010969062    85.040798    863.07129 
   27000    304.61563   0.33036739    2.7325464  0.048029387         0.02    4.2962534 0.0099160545    84.093623    861.91355 
   27100    305.61857   0.33099267    2.7410737  0.048029387         0.02    4.6099971  0.010108054    86.152671    860.67912 
   27200    306.62773   0.32992019     2.750252  0.048029387         0.02    4.3193529  0.010073047    84.138327     859.5196 
   27300    307.66103   0.32985224    2.7600289  0.048029387         0.02    4.3506832  0.010717552    84.936868    858.33012 
   27400    308.76308   0.33122451    2.7695738  0.048029387         0.02    4.3802244  0.010718646    84.833621    857.14452 
   27500    309.84173   0.33087535    2.7792473  0.048029387         0.02    4.4963944  0.011107421    85.580907    855.93183 
   27600    310.94106   0.33117668     2.788566  0.048029387         0.02    4.2066304  0.010460869    83.556217    854.79374 
   27700    312.01397   0.33067485     2.798549  0.048029387         0.02    3.7735285  0.011032194    84.425236    853.62308 
   27800    313.12451   0.33146199    2.8085433  0.048029387         0.02    4.1685166  0.011328574    85.227874    852.42334 
   27900    314.14349   0.33160155    2.8172626  0.048029387         0.02     4.065847  0.010086967    85.115004    851.22781 
   28000     315.1659    0.3314859    2.8256487  0.048029387         0.02    3.7059245  0.010236334    85.296214    850.02601 
   28100     316.1938   0.33114123    2.8347706  0.048029387         0.02    3.9429824  0.010011067    86.599717    848.77926 
   28200    317.25059   0.33074776    2.8431426  0.048029387         0.02    3.9087207  0.010214181    85.477692    847.57176 
   28300    318.36743   0.32997956    2.8527471  0.048029387         0.02    4.1669231   0.01149019    85.533768    846.36259 
   28400     319.4508   0.33180941    2.8615988  0.048029387         0.02    3.8926871  0.010536195    85.762109    845.14585 
   28500    320.52092   0.32974919    2.8707379  0.048029387         0.02    3.8700736  0.010552489    85.958946    843.92277 
   28600    321.56719   0.33026301    2.8788366  0.048029387         0.02    4.1112781  0.010852834    86.095055    842.69551 
   28700    322.62778   0.33180441    2.8864514  0.048029387         0.02    4.1481762  0.010329403     85.24873    841.49735 
   28800    323.68632   0.33071304    2.8951713  0.048029387         0.02    4.2049931 0.0099742902    85.166317    840.30218 
   28900    324.72359   0.33154026    2.9031828  0.048029387         0.02    4.3823893  0.010139145    85.672033    839.09011 
   29000    325.71691   0.33042655    2.9109095  0.048029387         0.02    4.4264523  0.010121974    84.046609     837.9336 
   29100    326.74639   0.32983648    2.9189882  0.048029387         0.02    4.4459445  0.010395368    85.158795    836.73901 
   29200    327.78013   0.33069916    2.9274299  0.048029387         0.02    4.6013262  0.010132924    85.743875    835.52513 
   29300    328.81945   0.33163651    2.9358431  0.048029387         0.02    4.5550692   0.01066124    85.187143    834.32997 
   29400    329.88074   0.33081105    2.9444865  0.048029387         0.02    4.3551671  0.010690601    83.969546    833.17583 
   29500    330.92429   0.33043174    2.9529183  0.048029387         0.02    4.6127514  0.010183625    83.640295    832.03264 
   29600    331.94569   0.33200547    2.9613938  0.048029387         0.02    4.6269846   0.01053118    84.435502    830.86232 
   29700    333.02643   0.33032399    2.9700009  0.048029387         0.02    4.4070127  0.010525554    83.910632    829.70943 
   29800    334.07319   0.33128799    2.9777039  0.048029387         0.02    4.1542215    0.0104501    84.742744    828.52872 
   29900    335.08511   0.33046299    2.9853263  0.048029387         0.02     4.197047 0.0098946651    84.054037    827.37069 
   30000    336.08506   0.33055589    2.9931009  0.048029387         0.02    4.2229006 0.0099080699    82.997804    826.24777 
   30100    337.05116   0.33127871    3.0006945  0.048029387         0.02    4.2596106  0.010146749    84.303602    825.08096 
   30200    338.07074   0.33070999     3.008411  0.048029387         0.02     4.298781  0.010346817    84.689136    823.90155 
   30300    339.06963   0.33026532    3.0167383  0.048029387         0.02     4.054849  0.011381132    81.928801    822.81364 
   30400    340.19297   0.33033136    3.0255331  0.048029387         0.02    3.7735865  0.010877642    82.830832    821.69443 
   30500    341.28011   0.33056649    3.0343643  0.048029387         0.02    3.6476839  0.010741725    82.572224    820.58326 
   30600    342.34011   0.32962847     3.042702  0.048029387         0.02      3.86508 0.0094840916    81.400136    819.51098 
   30700    343.45109    0.3310669    3.0498311  0.048029387         0.02    3.7378845  0.011469145    82.121502    818.41332 
   30800     344.5697   0.33087631    3.0575813  0.048029387         0.02     3.739948   0.01060311    82.117981    817.31501 
   30900    345.60335   0.32967745    3.0654284  0.048029387         0.02    3.9805533  0.010586213    85.164449     816.1185 
   31000    346.62568   0.33003535    3.0734636  0.048029387         0.02    4.2106133  0.010536841     82.93021    814.99256 
   31100    347.66589   0.32976903    3.0812706  0.048029387         0.02     4.282439  0.010360582    83.442433     813.8497 
   31200    348.66145   0.33003233    3.0884761  0.048029387         0.02    4.0899397 0.0087968958    82.647166    812.73191 
   31300    349.57906   0.33033859    3.0958379  0.048029387         0.02     3.832062  0.011261313    82.474366     811.6191 
   31400    350.69321   0.33014878    3.1046152  0.048029387         0.02     4.140051  0.011197006    83.212459    810.48215 
   31500    351.75833   0.33078003    3.1130719  0.048029387         0.02    4.0856335  0.010809585    82.825549      809.357 
   31600    352.81965   0.33088327    3.1220684  0.048029387         0.02    3.9235661  0.010986496    82.839404     808.2309 
   31700    353.93108   0.33104008     3.130604  0.048029387         0.02    4.0064814  0.010584872    84.733123    807.04616 
   31800    354.98981   0.33031969    3.1388405  0.048029387         0.02    3.6886451  0.010536864    86.300261    805.81548 
   31900    356.05689    0.3305507    3.1469731  0.048029387         0.02    4.2423266  0.011022203     85.12841     804.6193 
   32000    357.14064   0.33142157    3.1557596  0.048029387         0.02    4.2966611  0.010088957    85.523949    803.41172 
   32100    358.23113   0.33187344     3.164762  0.048029387         0.02    4.4188463  0.011037168    85.547236     802.2037 
   32200    359.33942   0.33115208    3.1735701  0.048029387         0.02    4.0336603  0.011181238    85.131952    801.00793 
   32300    360.43635   0.33134979    3.1827236  0.048029387         0.02    4.1052127  0.010514273    84.526929    799.82991 
   32400    361.44169   0.33234631    3.1911478  0.048029387         0.02    3.9408654 0.0098837164     85.23274    798.63142 
   32500    362.42557   0.33226685    3.1996713  0.048029387         0.02    4.3010462 0.0095084473    83.922049    797.47115 
   32600    363.43178   0.33075017    3.2080299  0.048029387         0.02    4.4573992  0.010151561    85.176331     796.2744 
   32700     364.4458   0.33198801     3.217353  0.048029387         0.02    4.4680949    0.0106762    83.837404    795.11639 
   32800    365.46442   0.33067249    3.2271403  0.048029387         0.02    4.7849295 0.0097721108    85.338368    793.91517 
   32900    366.50579   0.33088484    3.2359475  0.048029387         0.02    4.4650514  0.010495848    84.594918    792.73514 
   33000    367.55162   0.33166426     3.243876  0.048029387         0.02    4.9709539  0.009586863    83.264296    791.59346 
   33100    368.58057   0.33108864    3.2513526  0.048029387         0.02    4.5565596  0.010457923     83.14819     790.4548 
   33200    369.57764   0.33049971    3.2594115  0.048029387         0.02    4.7785654 0.0099733915    83.255701    789.31263 
   33300    370.56063   0.33249536    3.2676518  0.048029387         0.02    3.9377227 0.0097472578    85.041384     788.1196 
   33400    371.53017      0.33177     3.276104  0.048029387         0.02    3.9397772   0.00950853    84.453693    786.94298 
   33500    372.48768   0.33067454    3.2842316  0.048029387         0.02    3.7730509  0.011440658     85.65529    785.73334 
   33600     373.6094   0.33039842     3.293362  0.048029387         0.02    3.7287078  0.011568129    84.573186    784.55347 
   33700    374.73394   0.33045275    3.3044654  0.048029387         0.02    4.0065855  0.011065211    84.555659    783.37408 
   33800    375.84858   0.33170447    3.3143939  0.048029387         0.02    3.9668964  0.011425925    83.993726    782.21015 
   33900    376.92265   0.33136041    3.3242481  0.048029387         0.02    3.6870394  0.011342115    84.223158    781.03975 
   34000    377.97995   0.33122479    3.3335312  0.048029387         0.02    4.2432303    0.0103305    83.865382    779.87908 
   34100    379.02843   0.33062251    3.3427698  0.048029387         0.02    4.3583668  0.010790995    83.546314    778.72702 
   34200     380.1039   0.33083126    3.3515495  0.048029387         0.02    4.3601652  0.011291931    84.444478    777.55021 
   34300     381.1869   0.33059944    3.3609181  0.048029387         0.02    4.6352793  0.010542981     84.99296    776.35872 
   34400    382.21377   0.33080248    3.3695747  0.048029387         0.02    4.6224579  0.010043251    84.807788    775.17221 
   34500    383.17992    0.3303572    3.3780999  0.048029387         0.02    4.4232864 0.0098847839    85.373265    773.97092 
   34600    384.17637   0.33086468    3.3868585  0.048029387         0.02    4.4339211 0.0098969877    85.671229     772.7621 
   34700    385.20708   0.33072899    3.3959356  0.048029387         0.02    4.3535368  0.010605615    85.769615      771.551 
   34800    386.25031   0.33053452    3.4055458  0.048029387         0.02    4.6521806  0.010632689    85.616073    770.34408 
   34900    387.28884   0.33113997    3.4147453  0.048029387         0.02    4.6973371  0.010533541    85.249388    769.14675 
   35000    388.32575   0.33131254    3.4227429  0.048029387         0.02    4.7338289  0.010429799    83.040199    768.00752 
   35100    389.35959   0.33104488    3.4318775  0.048029387         0.02    4.7640772  0.010346477    84.131745    766.83903 
   35200    390.38954   0.33000663    3.4404451  0.048029387         0.02    4.7303412  0.010365068    82.263966     765.7201 
   35300    391.40557   0.33039777    3.4493921  0.048029387         0.02    4.7823394 0.0099986878    81.059941    764.63372 
   35400    392.47052   0.32925309    3.4585583  0.048029387         0.02    4.0374235  0.010341767    81.868369    763.52428 
   35500     393.5225   0.32982653    3.4672697  0.048029387         0.02    4.3273223  0.011272679    85.452997    762.32111 
   35600    394.61063   0.32987084    3.4770457  0.048029387         0.02    4.2834961  0.010775343    84.900454     761.1319 
   35700    395.67759   0.33078603    3.4871273  0.048029387         0.02    4.2973306  0.010370213    83.644131    759.97462 
   35800    396.74263    0.3313765    3.4965204  0.048029387         0.02    4.0398809  0.010481725    84.396663    758.79801 
   35900     397.7895   0.33205836    3.5057508  0.048029387         0.02     4.007346  0.010370755    83.629738    757.64076 
   36000    398.80181   0.33108446    3.5149244  0.048029387         0.02    3.9293959  0.011117454    84.377495    756.46445 
   36100    399.82978    0.3288378    3.5241676  0.048029387         0.02     4.181257 0.0098710531    82.818696    755.32758 
   36200    400.80416   0.33086899    3.5326009  0.048029387         0.02    3.8370318 0.0094268103    81.299425    754.23008 
   36300    401.75625   0.33031207    3.5420237  0.048029387         0.02    4.2638407 0.0095490754    83.267618    753.08084 
   36400    402.75987   0.33042169    3.5513519  0.048029387         0.02    4.6030611   0.01035893    81.790748     751.9692 
   36500    403.81416   0.33046585    3.5607057  0.048029387         0.02    4.2224148  0.010530303    80.998687    750.87775 
   36600    404.87321   0.33102204    3.5699661  0.048029387         0.02    4.3495116  0.010333517    81.395839    749.77509 
   36700    405.96701   0.33031268     3.579807  0.048029387         0.02    3.6876217  0.011406063    82.103289    748.65348 
   36800      407.084   0.33078528    3.5894276  0.048029387         0.02    4.1290382  0.010827883    85.685983    747.44389 
   36900    408.12998   0.33177046     3.598367  0.048029387         0.02    4.5974981 0.0097338292    85.128116     746.2476 
   37000    409.11097   0.33160864    3.6068932  0.048029387         0.02    3.8585109 0.0095305033    83.959965    745.07926 
   37100    410.09763   0.33075341    3.6138979  0.048029387         0.02      4.23778 0.0092895922      82.9925    743.93434 
   37200    411.02786   0.33121248    3.6214225  0.048029387         0.02    4.3679198 0.0092789663    84.421753    742.75466 
   37300     411.9999   0.33117568    3.6287668  0.048029387         0.02    3.7584705 0.0096089058    83.317637    741.60134 
   37400    413.00225   0.33185454    3.6374941  0.048029387         0.02    4.4162193  0.010834665    85.228826    740.40272 
   37500    414.01812    0.3317788    3.6450013  0.048029387         0.02    5.0408186 0.0099059398    84.866595    739.21258 
   37600    414.99874   0.33076209    3.6533215  0.048029387         0.02    4.4823544 0.0096378972    79.517545    738.15405 
   37700    415.96155   0.32956093     3.661415  0.048029387         0.02    4.4672166 0.0094803285    80.496053     737.0692 
   37800    416.98146   0.33145243     3.669641  0.048029387         0.02    4.4544196  0.010150753    81.936643    735.94758 
   37900    418.02032   0.33065535    3.6784719  0.048029387         0.02    4.7762545 0.0085836417    81.313642    734.84076 
   38000     418.8916   0.33093006    3.6855452  0.048029387         0.02    4.5415464 0.0090706576    84.572965    733.65596 
   38100    419.80119    0.3316049    3.6927365  0.048029387         0.02    4.5576425 0.0090492975    81.174165     732.5516 
   38200    420.70581   0.33164762    3.7003917  0.048029387         0.02    4.6303857 0.0088888438    84.826415    731.36078 
   38300     421.6039   0.33083926    3.7074728  0.048029387         0.02    4.6077574  0.009200938    85.334358     730.1587 
   38400    422.57613   0.32990537     3.715791  0.048029387         0.02    4.4713331 0.0099621665     85.82734    728.94599 
   38500    423.56267    0.3288059    3.7246368  0.048029387         0.02    4.6783622 0.0098876266    84.139947    727.77085 
   38600    424.54002   0.33010088    3.7332347  0.048029387         0.02    4.4116413 0.0096421685    85.712861    726.56095 
   38700    425.51403   0.32960437    3.7415047  0.048029387         0.02    4.0920122  0.010095123    85.380408    725.35847 
   38800    426.48215   0.33144468    3.7492487  0.048029387         0.02    5.1186363 0.0096014389    85.173788    724.16063 
   38900     427.4475   0.33043777    3.7581148  0.048029387         0.02    4.9870508 0.0093928696    85.196453    722.96242 
   39000    428.39555   0.33073351    3.7666109  0.048029387         0.02    5.0390585 0.0095453584    83.365082    721.80467 
   39100    429.34708   0.33015618    3.7750003  0.048029387         0.02    5.0831954  0.009472567    83.095048    720.65277 
   39200    430.28592   0.33164909    3.7828917  0.048029387         0.02    4.7896729 0.0089396251     84.65085    719.46631 
   39300    431.19277   0.32950919    3.7914101  0.048029387         0.02    4.4892747 0.0086224717    83.801658    718.29836 
   39400    432.13078   0.32875283    3.8003542  0.048029387         0.02    4.2563919  0.010203352    84.431932    717.11659 
   39500     433.1627   0.33053778     3.808843  0.048029387         0.02    4.2689704  0.011202515    83.310902    715.95921 
   39600    434.30391   0.33080287     3.819384  0.048029387         0.02    4.1340246  0.011450314    84.452894    714.77685 
   39700    435.45032   0.32954294    3.8305571  0.048029387         0.02    3.8649873  0.011035266     84.36015    713.59647 
   39800     436.5651   0.32927389    3.8407133  0.048029387         0.02    3.7707621  0.011028902    84.672638    712.40944 
   39900    437.61655   0.33190291    3.8492723  0.048029387         0.02    4.0846894  0.010631267    85.118839    711.21312 
   40000    438.68837   0.33159686    3.8589675  0.048029387         0.02    3.9609021  0.010525099     81.98804    710.08419 
   40100    439.73208   0.33106591    3.8681934  0.048029387         0.02     3.942451 0.0098171254    85.417009    708.88168 
   40200    440.83007   0.32998462    3.8780614  0.048029387         0.02    4.2502053  0.010939103    84.457605    707.69911 
   40300    441.90582   0.33035123    3.8878269  0.048029387         0.02    4.3482944  0.010618779    84.366259    706.51843 
   40400    442.96505   0.33061164     3.896134  0.048029387         0.02    4.0620902 0.0099427029     85.11421    705.32236 
   40500    444.05545   0.33166094    3.9053421  0.048029387         0.02    3.9140449  0.011081888    84.218473    704.14475 
   40600    445.12999   0.33091024    3.9157931  0.048029387         0.02    3.7524316  0.010132455    85.349361    702.94408 
   40700    446.13233    0.3308809     3.924129  0.048029387         0.02    4.2470536 0.0098100909    84.343475     701.7639 
   40800    447.10351   0.32906721    3.9331371  0.048029387         0.02    4.3973535 0.0097454176    84.421396    700.58212 
   40900     448.0781   0.33062696    3.9412716  0.048029387         0.02    4.7340015 0.0097130335    84.902035    699.39063 
   41000    449.04905   0.33125568     3.949834  0.048029387         0.02    4.7201846 0.0096609346    83.015316    698.23772 
   41100    450.06165   0.33033536    3.9582089  0.048029387         0.02    4.6590505  0.010506981     85.71118    697.03028 
   41200    451.10542   0.32986591    3.9661612  0.048029387         0.02    4.6327135  0.010606532    85.270099    695.83163 
   41300    452.16038   0.32935842    3.9753592  0.048029387         0.02    4.7533797  0.010395193    84.706719    694.64421 
   41400    453.19949   0.33110743    3.9829927  0.048029387         0.02    4.8004694  0.010361753    84.942063    693.45218 
   41500    454.21356   0.33067546    3.9915677  0.048029387         0.02    4.9321962  0.010032858    83.209487    692.29478 
   41600    455.22263   0.33055694    3.9996817  0.048029387         0.02    4.9079583 0.0099797795    86.095197    691.08062 
   41700    456.24816     0.331738    4.0080573  0.048029387         0.02    4.6246567   0.01031749    83.945497     689.9083 
   41800    457.29331   0.33140748     4.016964  0.048029387         0.02    4.2905783  0.011125827    85.073726    688.71389 
   41900    458.44868   0.33139318     4.026103  0.048029387         0.02    3.9957526  0.010980962    85.197318     687.5172 
   42000    459.54308   0.33208762    4.0353745  0.048029387         0.02     4.487796   0.01069601    85.125939    686.32199 
   42100    460.60538   0.33148959    4.0448654  0.048029387         0.02    4.4634088  0.010559455    83.089468    685.16646 
   42200    461.63056   0.33035682    4.0542363  0.048029387         0.02    4.5336417  0.010513397    84.430726    683.98453 
   42300    462.68093   0.33094055     4.063097  0.048029387         0.02    4.7016061  0.010048812    83.934796    682.81213 
   42400    463.70977   0.33113063    4.0710006  0.048029387         0.02    4.6493649  0.010477093    85.736076    681.60563 
   42500    464.75767   0.32985301    4.0801425  0.048029387         0.02    4.6801309  0.010400214    83.595769    680.43973 
   42600    465.77162   0.32925925    4.0898319  0.048029387         0.02     4.770331  0.010082563    83.206714    679.28122 
   42700    466.79948   0.33073705    4.0992174  0.048029387         0.02    4.7265259  0.010535824    85.055922    678.08744 
   42800    467.83065   0.33178827    4.1078828  0.048029387         0.02    4.8909808  0.010109368    85.676146    676.88238 
   42900    468.81856   0.33097773    4.1163498  0.048029387         0.02    5.2107768 0.0095847095    85.505974    675.68058 
   43000    469.77542    0.3305034    4.1249559  0.048029387         0.02    5.2511423 0.0095087003    82.928849    674.52711 
   43100    470.72357   0.33206956    4.1328139  0.048029387         0.02    5.2939888 0.0094298062    83.814084    673.35658 
   43200    471.64363   0.33045322    4.1405303  0.048029387         0.02    5.4885609 0.0090523433    84.066874    672.18123 
   43300    472.54612   0.32994889    4.1484089  0.048029387         0.02    5.5387298 0.0087929143     84.78665    670.99259 
   43400    473.50628   0.33011498    4.1566381  0.048029387         0.02    3.8673071   0.00946468    85.847015      669.785 
   43500    474.55726   0.32886999     4.165795  0.048029387         0.02     4.483937  0.010618771    82.709227      668.635 
   43600     475.6012    0.3305906    4.1739493  0.048029387         0.02    4.2843975  0.010192138    80.348573    667.53068 
   43700    476.64129   0.33206695    4.1823303  0.048029387         0.02    4.0215455  0.010510075    81.482936     666.4034 
   43800    477.68011   0.33126347    4.1907021  0.048029387         0.02    3.9619624  0.010291722    80.822176    665.28853 
   43900    478.67942   0.33092107    4.1989178  0.048029387         0.02    4.2275711  0.011714809     81.79598    664.15428 
   44000    479.81283   0.33193333    4.2084839  0.048029387         0.02    3.8068638  0.010970227    81.233655     663.0304 
   44100    480.90778    0.3302403    4.2177189  0.048029387         0.02    3.9970188  0.011509042    80.379184    661.92263 
   44200    481.97147   0.33099985    4.2265935  0.048029387         0.02    4.5612397  0.010022105     80.98236    660.80254 
   44300    482.98743   0.33095126    4.2355102  0.048029387         0.02      4.69897 0.0099016565    82.120345    659.66041 
   44400    483.91385   0.33046274    4.2438556  0.048029387         0.02    5.0387967 0.0090077329    82.343086    658.51382 
   44500     484.8104   0.33183017    4.2512336  0.048029387         0.02    5.0014876 0.0090390691    85.460153    657.31168 
   44600    485.71836   0.33198459    4.2584554  0.048029387         0.02    4.7177826 0.0091849821     83.55908    656.14276 
   44700    486.63322   0.33065502    4.2664789  0.048029387         0.02    4.8040707 0.0088331443    84.221027    654.96207 
   44800    487.64325   0.33179194    4.2755636  0.048029387         0.02    3.8462124  0.009888608    84.946897    653.76885 
   44900    488.65999   0.33119789    4.2852656  0.048029387         0.02    4.2011863  0.010700806    83.799749    652.59548 
   45000    489.69534   0.33056371     4.294108  0.048029387         0.02    4.0596335  0.010308962    83.314311    651.43052 
   45100    490.77489   0.33214571    4.3032381  0.048029387         0.02    4.1377297  0.010279221    85.386161    650.22994 
   45200    491.72913   0.33075124    4.3117267  0.048029387         0.02    4.1391029   0.01009206    85.132972    649.03373 
   45300    492.85313   0.33073346    4.3210372  0.048029387         0.02    4.0376314      0.01123     84.20493    647.85323 
   45400    493.92311   0.33220447    4.3302118  0.048029387         0.02    4.6810495  0.010522572    86.103786    646.64122 
   45500    494.98409    0.3313103    4.3390997  0.048029387         0.02    4.5554729  0.010597007    85.011531    645.44729 
   45600    496.02005   0.33181285    4.3476459  0.048029387         0.02    4.5031954  0.010392096    83.859279    644.27273 
   45700    497.05535   0.33029532    4.3563205  0.048029387         0.02    4.6807815  0.010276509     84.46929    643.08785 
   45800    498.04014   0.33142788    4.3642502  0.048029387         0.02    5.5004665  0.008879254    81.874745    641.94738 
   45900    499.00194   0.33131778    4.3734268  0.048029387         0.02    4.6236407  0.010094135    85.795669    640.74076 
   46000    500.03711   0.33000416    4.3819128  0.048029387         0.02    4.3040428  0.011073092    83.385102    639.57388 
   46100    501.11094   0.33162556    4.3907702  0.048029387         0.02    3.9711028  0.010851966    84.803536    638.38341 
   46200     502.1864   0.33074614    4.4001936  0.048029387         0.02    4.1144599  0.010150296    83.978002    637.20648 
   46300    503.26354   0.33105515    4.4103809  0.048029387         0.02    4.0239865  0.010380638     84.68599    636.01794 
   46400    504.30987   0.33057528    4.4200543  0.048029387         0.02    4.1131504  0.010794074     85.34943    634.81884 
   46500    505.38788   0.33049392    4.4293896  0.048029387         0.02    4.2382609   0.01119783    84.490576    633.63355 
   46600    506.45086   0.33111621    4.4395499  0.048029387         0.02     4.350793  0.010669965    84.321228      632.451 
   46700    507.50848   0.33128387    4.4482205  0.048029387         0.02     4.338756 0.0098185208     85.10276    631.25601 
   46800    508.41666   0.33126679    4.4556434  0.048029387         0.02     4.942635 0.0078929914    85.340608    630.05737 
   46900    509.27235   0.33124933    4.4622308  0.048029387         0.02    4.7438933 0.0096467496    84.427021    628.87321 
   47000    510.20698   0.33163092    4.4700608  0.048029387         0.02    4.3077841 0.0091392765    84.177773      627.693 
   47100    511.11126   0.33131913    4.4778453  0.048029387         0.02    4.5742809 0.0087076407    86.405402    626.47836 
   47200    511.99103    0.3316048    4.4848596  0.048029387         0.02    4.4513124 0.0088660334    84.139745    625.29882 
   47300    512.92122   0.33175253    4.4938812  0.048029387         0.02    5.0458385 0.0092044589    84.741734    624.10984 
   47400    513.82733    0.3317354    4.5013821  0.048029387         0.02     5.392667 0.0090395442    84.290032    622.92791 
   47500    514.71924   0.33051727    4.5094538  0.048029387         0.02     5.452737 0.0088335818     84.59514    621.74123 
   47600    515.59637   0.33172543    4.5172324  0.048029387         0.02    5.6200695 0.0085365942    85.074313    620.54725 
   47700    516.45221    0.3307636    4.5252719  0.048029387         0.02    4.0810091 0.0090210291    84.068728    619.36876 
   47800    517.34792    0.3312323     4.532633  0.048029387         0.02    4.0606109 0.0089181154    83.873616    618.19324 
   47900    518.23636   0.33190283    4.5400705  0.048029387         0.02    4.0552649 0.0088374229    83.937399    617.01667 
   48000     519.1057   0.33079294    4.5479893  0.048029387         0.02     4.214105 0.0087076603    82.569022    615.86143 
   48100    519.98465   0.33033363    4.5559695  0.048029387         0.02    4.1106791 0.0091235333    82.668668    614.70438 
   48200     520.9008   0.33058606    4.5635224  0.048029387         0.02    4.2092745 0.0092374269    84.287406    613.52214 
   48300      521.823   0.33073701    4.5716651  0.048029387         0.02    4.2871692 0.0096298718    84.877242    612.33106 
   48400    522.80276   0.33000688    4.5809783  0.048029387         0.02    4.1163543 0.0096875866    85.426351    611.13196 
   48500    523.84867   0.33095029     4.589851  0.048029387         0.02    4.3161232  0.011076119    84.325348    609.94921 
   48600    524.93942   0.33195884    4.5988388  0.048029387         0.02    4.1341939  0.010629217    84.677236    608.76124 
   48700    526.01798   0.33133412    4.6083361  0.048029387         0.02    3.8124079  0.010932517    84.472233    607.57631 
   48800    527.10251   0.33152873    4.6172454  0.048029387         0.02    4.1310044  0.011388969    84.839798      606.386 
   48900    528.18561      0.33164    4.6250908  0.048029387         0.02     4.470875  0.010167693    84.531716    605.20023 
   49000     529.2186   0.33113595    4.6336285  0.048029387         0.02     3.946868  0.010259023    84.195566    604.01939 
   49100    530.23315   0.33097504    4.6421425  0.048029387         0.02    4.1778809  0.010139237    85.418609    602.82089 
   49200    531.24039   0.33133317    4.6508192  0.048029387         0.02    4.3040117 0.0098323252    81.675802     601.6779 
   49300    532.17152   0.33201486    4.6586112  0.048029387         0.02    4.1014618  0.009626152    85.128617    600.48351 
   49400    533.13999   0.33056012    4.6674696  0.048029387         0.02    4.5814873 0.0090083383     85.15966    599.28876 
   49500    534.10376   0.33105428    4.6762308  0.048029387         0.02    4.5730296  0.010141424    84.542008    598.10284 
   49600    535.10065   0.33086721    4.6842835  0.048029387         0.02    4.5480878 0.0093565493    84.324212    596.92004 
   49700    536.03085   0.33244905    4.6931599  0.048029387         0.02    3.9629019 0.0092139063    84.991875     595.7278 
   49800    536.95448   0.33135133    4.7011914  0.048029387         0.02    4.0348016 0.0094637021    85.794335    594.52453 
   49900    537.89934   0.33126076    4.7089263  0.048029387         0.02    4.3142182 0.0093945706    84.498781    593.33935 
   50000    538.86673   0.33043062    4.7169227  0.048029387         0.02    4.1149497  0.010276364    83.962284    592.16174 
   50100    539.94151   0.33100218    4.7256716  0.048029387         0.02    4.0062247  0.010823378    85.816944    590.95844 
   50200    540.99926   0.32960408    4.7349997  0.048029387         0.02    4.1096202  0.010658566     84.62185    589.77162 
   50300    542.10308   0.33131019     4.744374  0.048029387         0.02    3.8082915  0.011453597      86.6905    588.55695 
   50400    543.14915   0.33137838    4.7536384  0.048029387         0.02    4.6122869  0.009686165    85.979192    587.35192 
   50500    544.10552   0.33142012    4.7622441  0.048029387         0.02    4.6391469 0.0097016831    85.412487    586.15462 
   50600    545.07279   0.33235578    4.7701601  0.048029387         0.02    4.9566761 0.0096435463    85.994881    584.94968 
   50700    546.06104    0.3317515    4.7791337  0.048029387         0.02    4.7993894  0.010187741    84.797003    583.76088 
   50800    547.12125   0.33177352     4.788679  0.048029387         0.02    4.4722833  0.010468969    82.462448    582.60446 
   50900    548.17079   0.33141951    4.7982612  0.048029387         0.02    4.4426623  0.010397979    84.731839    581.41648 
   51000     549.2305   0.33158843    4.8062472  0.048029387         0.02    4.7588661  0.010469407     84.11079    580.23691 
   51100     550.2833   0.33130129    4.8146706  0.048029387         0.02    4.6956036  0.010570112    83.491898    579.06573 
   51200    551.29591    0.3312259    4.8234759  0.048029387         0.02    4.2289104  0.010084788    85.338802    577.86975 
   51300    552.31965   0.33068721    4.8323998  0.048029387         0.02    4.2094681  0.010294221    84.078907    576.69052 
   51400    553.37618   0.33195252    4.8406897  0.048029387         0.02    4.3102629  0.011095679    85.024111    575.49876 
   51500    554.44985    0.3315128    4.8498126  0.048029387         0.02    4.1680037  0.010748664     85.82748    574.29669 
   51600    555.49934   0.33127737    4.8588302  0.048029387         0.02    4.1935293  0.010277301     85.93679    573.09337 
   51700    556.56401   0.33012853    4.8675055  0.048029387         0.02    4.0425306  0.010829955    84.231581    571.91221 
   51800     557.6573   0.33159442    4.8774432  0.048029387         0.02    4.0534919  0.010199992    83.379201    570.74233 
   51900    558.74927     0.331118    4.8869472  0.048029387         0.02    4.0907076  0.010399363    82.317051    569.58667 
   52000    559.79299   0.33045766    4.8955024  0.048029387         0.02    4.2750847  0.010340942    80.988318    568.44918 
   52100    560.88195   0.33155309    4.9041985  0.048029387         0.02    3.8159223  0.010201711     80.25946    567.32163 
   52200    561.89845   0.32991921    4.9132689  0.048029387         0.02     4.070153  0.009488845    83.286484    566.15215 
   52300    562.85734   0.33045148    4.9214255  0.048029387         0.02    3.9580691 0.0099504247    83.213581    564.98352 
   52400    563.85368    0.3300579    4.9289617  0.048029387         0.02    3.9801215 0.0099817322    85.990808    563.77951 
   52500    564.82874   0.33047079     4.936758  0.048029387         0.02    4.2569741 0.0093944086    84.362492    562.59595 
   52600    565.78912   0.33061036    4.9447798  0.048029387         0.02    4.3964978 0.0096436165     85.29526    561.40071 
   52700    566.80067   0.33063727    4.9531596  0.048029387         0.02    4.3278369   0.01053265    84.432935    560.21631 
   52800    567.84598   0.33212984    4.9617644  0.048029387         0.02    4.2555827  0.010809812    84.792392    559.02742 
   52900    568.91767   0.33205368    4.9701963  0.048029387         0.02    4.0921904  0.010674813    83.838812     557.8505 
   53000    569.98061   0.33162279    4.9778877  0.048029387         0.02    4.4469099  0.011041761    84.542008    556.66473 
   53100     571.0088   0.33017978    4.9857409  0.048029387         0.02     4.618805  0.010636835    85.425325    555.46816 
   53200    572.06516   0.33078212    4.9943842  0.048029387         0.02    4.7559231  0.010428788    84.959595    554.27734 
   53300    573.09325   0.32936218    5.0030053  0.048029387         0.02    4.9334926  0.010116966    84.123325    553.09683 
   53400    574.09475   0.33051984    5.0107289  0.048029387         0.02    4.6493934  0.009914083    84.756752    551.90852 
   53500    575.05995   0.33050815     5.017527  0.048029387         0.02    4.5151549  0.010361225    84.412272    550.72444 
   53600    576.13595   0.33049303    5.0269419  0.048029387         0.02    3.9066306  0.011161067    84.289388    549.54185 
   53700    577.23404    0.3292015     5.035668  0.048029387         0.02    3.9235364  0.010897969     85.54509    548.34423 
   53800    578.28682   0.33101871    5.0446202  0.048029387         0.02    3.9988632  0.011127853    85.247863    547.15021 
   53900    579.35206   0.32934729    5.0530332  0.048029387         0.02    4.1558253 0.0095646756     82.32248    545.99193 
   54000     580.3323   0.33141093    5.0600208  0.048029387         0.02    4.1251719 0.0098137419    83.773003    544.81552 
   54100    581.31409   0.33041913    5.0679367  0.048029387         0.02    3.9812159  0.010268869     84.93016    543.62525 
   54200    582.29183   0.33044879    5.0762543  0.048029387         0.02    3.7070563 0.0090883648    85.015942    542.43402 
   54300    583.20696   0.33048904    5.0833677  0.048029387         0.02    3.7044618 0.0087291876    85.872078    541.23297 
   54400    584.28533   0.32931694    5.0912748  0.048029387         0.02    3.7937864  0.011141452    85.201298    540.03975 
   54500    585.34195   0.32916703    5.1000902  0.048029387         0.02    3.7474959  0.010429571    85.260427    538.84592 
   54600    586.40819   0.32969987    5.1082498  0.048029387         0.02    4.6063579  0.010412747    85.073726     537.6543 
   54700    587.43997   0.33012884       5.1169  0.048029387         0.02     3.985393  0.012040247    85.544671    536.45739 
   54800    588.55977   0.33032244    5.1259804  0.048029387         0.02    4.2838615  0.010607899    85.064392    535.26602 
   54900    589.62175   0.32986016    5.1352258  0.048029387         0.02    4.3183683  0.010611036    84.949787    534.07601 
   55000    590.64422   0.33108337    5.1427471  0.048029387         0.02    4.8950272 0.0099107705    82.970615    532.90902 
   55100    591.63759   0.32939264    5.1514999  0.048029387         0.02    3.7848194  0.010190386    84.130884    531.72835 
   55200    592.65025    0.3303056    5.1603874  0.048029387         0.02     4.139664  0.010558298    84.827942    530.53972 
   55300    593.72155   0.33119466     5.169099  0.048029387         0.02    3.8887615  0.010582649    85.296648    529.34589 
   55400    594.80587   0.33051696    5.1774312  0.048029387         0.02    3.9123056   0.01088124    85.503847    528.14985 
   55500    595.89592   0.32977745    5.1859686  0.048029387         0.02    4.0044025  0.010716793    84.431864    526.96582 
   55600    596.97765   0.32974211    5.1944252  0.048029387         0.02    4.1047113  0.011259021    83.017452    525.79789 
   55700    598.09421   0.32993732    5.2044015  0.048029387         0.02    4.2101521  0.011286429    85.122311    524.60615 
   55800    599.10302   0.33150494    5.2132292  0.048029387         0.02    4.3208924  0.010224349    84.738088    523.41868 
   55900    600.09826   0.33156844    5.2211667  0.048029387         0.02    4.4069764 0.0097774267     84.15737    522.23767 
   56000    601.09671   0.33098612    5.2290609  0.048029387         0.02    4.3380291  0.010341744    84.055586    521.05776 
   56100    602.13841   0.33038871    5.2379146  0.048029387         0.02    4.4905069  0.010455517    83.528012     519.8837 
   56200    603.16447   0.33001128    5.2468247  0.048029387         0.02    4.3940206 0.0097265013    84.374015    518.70019 
   56300    604.19321   0.32921564     5.255602  0.048029387         0.02    4.0427843  0.010530414    86.286129     517.4963 
   56400    605.27496    0.3311566     5.265121  0.048029387         0.02    4.0661197  0.010645272    84.779675    516.30848 
   56500    606.35362   0.33096696    5.2738729  0.048029387         0.02    4.2557071  0.010786881    84.919259    515.11921 
   56600     607.4249   0.32972741    5.2832509  0.048029387         0.02    4.2391656   0.01006615    84.527066    513.93416 
   56700    608.45129   0.33056523    5.2922622  0.048029387         0.02    3.8338333  0.010375705    83.539541     512.7598 
   56800    609.48903   0.33035539    5.3012878  0.048029387         0.02    3.8724636  0.011113716    82.575296    511.59599 
   56900    610.56387   0.32975754    5.3097758  0.048029387         0.02    3.9378568  0.010459519    82.090016    510.43744 
   57000    611.61365   0.32979709    5.3181776  0.048029387         0.02    3.8563138  0.010531163    83.529692    509.26283 
   57100     612.6609   0.33092694    5.3263643  0.048029387         0.02    3.9876641  0.011416253     84.09128    508.08215 
   57200    613.76104   0.33016475    5.3356832  0.048029387         0.02    4.1522747  0.010935875    84.753806    506.89447 
   57300     614.8016   0.33088445    5.3447279  0.048029387         0.02    4.1631903 0.0098242365     81.13097    505.74609 
   57400     615.8667   0.33025596    5.3539051  0.048029387         0.02     3.822073  0.011797584    85.061701    504.55514 
   57500    617.00555   0.32979197    5.3626231  0.048029387         0.02    3.9301584   0.01114996    84.278599    503.37232 
   57600    618.12809   0.32989586    5.3715522  0.048029387         0.02      4.11742  0.011187012    84.049641    502.19187 
   57700    619.24972   0.32968681    5.3809741  0.048029387         0.02    4.0565532  0.011209661    84.534493    501.00638 
   57800    620.33598   0.33073572    5.3904236  0.048029387         0.02     4.194404  0.010808005    84.563808     499.8206 
   57900    621.44397   0.33010471     5.399209  0.048029387         0.02    4.2520736  0.010834358    85.533175    498.62509 
   58000    622.48825   0.32848917    5.4082267  0.048029387         0.02     4.054583  0.010458032    80.803382    497.47922 
   58100    623.53181    0.3288782    5.4168253  0.048029387         0.02    4.0732433   0.01009651    80.652511    496.33471 
   58200    624.53706   0.32986908    5.4243703  0.048029387         0.02    4.7099919 0.0098303749    82.233805    495.17274 
   58300    625.53935   0.33067132    5.4325008  0.048029387         0.02    4.2428651 0.0095641141    82.102068    494.01199 
   58400    626.52848   0.33024605    5.4406553  0.048029387         0.02     4.299875 0.0097898744    82.233257    492.84966 
   58500     627.5003   0.33019337    5.4483877  0.048029387         0.02    4.1723721 0.0093633546    82.140866    491.68811 
   58600    628.43438   0.32913054    5.4567963  0.048029387         0.02    4.1810849 0.0093023177    82.944379    490.51804 
   58700    629.35553   0.33022243    5.4642782  0.048029387         0.02    4.1475942 0.0090615239    82.985143    489.34743 
   58800    630.32725   0.33164276    5.4716249  0.048029387         0.02    4.4734091  0.010476217    86.775963    488.13982 
   58900     631.3545   0.33028193    5.4803609  0.048029387         0.02    4.6686296  0.010047267    84.032263    486.95865 
   59000    632.37457   0.32997457    5.4886257  0.048029387         0.02    4.0295335  0.010709746    84.282071    485.77501 
   59100    633.47536   0.33130657    5.4977567  0.048029387         0.02    4.0587479  0.010725113    83.878833    484.59529 
   59200    634.63522   0.33076442     5.507457  0.048029387         0.02    4.0474938  0.011180126    85.107319    483.40368 
   59300    635.80397   0.33064222    5.5169702  0.048029387         0.02    4.6704081   0.00967005    85.652072      482.207 
   59400    636.81541   0.32860319    5.5264014  0.048029387         0.02    4.1131793  0.011065006    84.528003    481.02102 
   59500    637.87346    0.3305083    5.5347383  0.048029387         0.02    4.1538398  0.010405677    85.089294    479.82974 
   59600    638.89297   0.33086776    5.5436803  0.048029387         0.02     4.241873  0.010274771    85.401687     478.6356 
   59700    639.91105   0.33136894    5.5525008  0.048029387         0.02    3.9154964  0.010283783    85.535234    477.44031 
   59800    640.92879   0.33059497    5.5608787  0.048029387         0.02    4.7721563  0.010228326    84.306923    476.25655 
   59900    641.93022   0.33052838     5.569692  0.048029387         0.02    5.0741072 0.0094177146    85.052455    475.06583 
   60000    642.86099   0.32998864    5.5776876  0.048029387         0.02    5.1317744 0.0091501961    84.064279    473.88437 
   60100    643.78608   0.33090439    5.5854505  0.048029387         0.02    4.8744962 0.0095269163    85.454826    472.69003 
   60200    644.76977    0.3303575    5.5933893  0.048029387         0.02    4.7502409 0.0091793395    85.992941    471.49093 
   60300    645.71049   0.33083248    5.6009329  0.048029387         0.02    4.7698096 0.0096760215    85.175259     470.2993 
   60400    646.65425   0.33019844    5.6097149  0.048029387         0.02    4.9164461 0.0089858671    84.191662    469.11672 
   60500    647.60997   0.32945534    5.6187807  0.048029387         0.02    4.2342269  0.010110209    86.639572    467.91221 
   60600    648.59421   0.32971496    5.6274071  0.048029387         0.02    4.3003019 0.0099379822    85.566835    466.71728 
   60700     649.5887   0.33051855    5.6362459  0.048029387         0.02    4.5890443  0.010501182    84.984298    465.52762 
   60800    650.64715   0.33041705    5.6451025  0.048029387         0.02    4.0422731  0.011167462    85.770808    464.33105 
   60900    651.71275   0.33031969    5.6538034  0.048029387         0.02    4.0786753  0.010308353    84.051342    463.14989 
   61000    652.74807   0.33122504    5.6621726  0.048029387         0.02    4.5403816  0.010691176    83.493427    461.97379 
   61100    653.81147   0.33144483    5.6701977  0.048029387         0.02    4.8126124 0.0095737476    84.295486    460.79035 
   61200    654.83005   0.33072397    5.6792453  0.048029387         0.02    3.9127378   0.01046014    85.494279    459.59637 
   61300    655.81831   0.33030895    5.6879446  0.048029387         0.02    4.2415693 0.0095528881    84.517204      458.411 
   61400    656.79341   0.33044714    5.6957387  0.048029387         0.02    4.1640059 0.0098257826    86.091786    457.21203 
   61500    657.77361   0.33054487    5.7040255  0.048029387         0.02    4.4029439 0.0097689066    83.545265    456.03535 
   61600    658.74835   0.32967407    5.7121224  0.048029387         0.02    4.4929292 0.0096722745    83.502985    454.85898 
   61700    659.74422   0.32979836     5.720405  0.048029387         0.02    4.2780892  0.010607722    85.012978    453.66934 
   61800     660.8188   0.33044973    5.7294651  0.048029387         0.02    4.4450585  0.010947328    84.406633    452.48496 
   61900    661.87374   0.33040691    5.7386297  0.048029387         0.02    4.4922951  0.010686099     84.28434    451.30164 
   62000      662.919   0.33057966    5.7483658  0.048029387         0.02    4.1140273   0.01152867    84.605583    450.11555 
   62100    664.03999   0.33053989    5.7575361  0.048029387         0.02    3.8796948  0.010987022    84.177992    448.93314 
   62200     665.1169   0.33093956    5.7668892  0.048029387         0.02    4.0784113  0.010247983    84.738225    447.74594 
   62300    666.17727    0.3302897    5.7753072  0.048029387         0.02    4.0249643  0.010441051    84.610959    446.55983 
   62400    667.25813   0.33096959    5.7848708  0.048029387         0.02      4.43662 0.0097674817    84.952816    445.37087 
   62500    668.32548   0.33054201    5.7943969  0.048029387         0.02    4.3963229   0.01070129    84.662537    444.18437 
   62600    669.41789   0.33110636    5.8037826  0.048029387         0.02    4.3660286  0.011303231    85.407095    442.99174 
   62700    670.53968   0.33193607    5.8139163  0.048029387         0.02    4.4619365  0.010992496    84.694506    441.80504 
   62800    671.63595   0.33173791    5.8231333  0.048029387         0.02     4.624305  0.010551487    81.728799    440.64373 
   62900    672.72175    0.3303306    5.8326887  0.048029387         0.02    4.2705279  0.010563652     83.88712    439.46366 
   63000    673.86381   0.32992906    5.8415254  0.048029387         0.02    3.6692228  0.011611022    84.770199    438.27625 
   63100    674.98425   0.33183137     5.851066  0.048029387         0.02    4.4719591 0.0096937799    83.794409    437.09691 
   63200    676.02806    0.3308117    5.8603379  0.048029387         0.02     3.732333  0.010767332    85.305096    435.90521 
   63300    677.12621   0.33169326    5.8700354  0.048029387         0.02    4.0237298 0.0098135257    85.162841    434.71471 
   63400    678.10733   0.33044751    5.8786942  0.048029387         0.02    3.8916958 0.0098067407    84.353517    433.53077 
   63500    679.19741   0.33080547    5.8885847  0.048029387         0.02    4.0301101  0.011694141    85.209364    432.33998 
   63600    680.31054   0.33178166    5.8993768  0.048029387         0.02    3.7916805  0.011183633    85.451309    431.14734 
   63700    681.37359   0.33229318    5.9084929  0.048029387         0.02    4.0633655   0.01018958    83.587572    429.96964 
   63800    682.40027   0.33128189    5.9172475  0.048029387         0.02    3.9860222 0.0099563067    84.314838    428.78602 
   63900    683.41914   0.33203733    5.9263492  0.048029387         0.02    4.3752237  0.010239591     85.57724    427.59251 
   64000    684.40173   0.32967213    5.9354319  0.048029387         0.02    4.8397632 0.0096712888    83.783947    426.41315 
   64100    685.40396   0.33059601    5.9443659  0.048029387         0.02    4.5476797  0.010229403    84.706069    425.22647 
   64200    686.43003   0.32978256    5.9541082  0.048029387         0.02    4.2522625  0.010930187    84.494848    424.04146 
   64300    687.47188   0.33047897    5.9633973  0.048029387         0.02    4.3742791  0.010776401    83.871788    422.86133 
   64400    688.54122   0.32991781    5.9718441  0.048029387         0.02    4.2757124  0.010388342    83.976388    421.68034 
   64500    689.64788    0.3320524    5.9820089  0.048029387         0.02    4.2374265  0.011252461    85.282166    420.48928 
   64600    690.69962   0.33081177    5.9913886  0.048029387         0.02      4.28924 0.0098054626    83.462774    419.31229 
   64700    691.73638   0.33158094    5.9996062  0.048029387         0.02    4.3295049  0.010503279    85.264587    418.12142 
   64800    692.81819   0.33187102    6.0096697  0.048029387         0.02    4.4680164  0.010635517    83.035169    416.94772 
   64900    693.88791   0.33041947    6.0179015  0.048029387         0.02    4.5118098  0.010692881    82.447697    415.77855 
   65000    694.86788   0.33037221    6.0258718  0.048029387         0.02    3.8585172  0.010157854    82.828983    414.60625 
   65100    695.93532   0.33043245    6.0339951  0.048029387         0.02     4.174333  0.010760179    84.928853    413.41784 
   65200    696.99635   0.33000858    6.0425792  0.048029387         0.02    4.5105262  0.010565736    85.506549    412.22521 
   65300    698.02462   0.33007441    6.0509956  0.048029387         0.02    4.5121682  0.010714054    84.590994    411.03938 
   65400    699.05228   0.33098802    6.0589485  0.048029387         0.02    4.3500918 0.0097771349    84.539639    409.85395 
   65500    700.01262   0.33085488    6.0666568  0.048029387         0.02    4.0759235 0.0095018128    84.897223    408.66589 
   65600    700.96031   0.33039956    6.0749643  0.048029387         0.02    4.2625281 0.0094631619    84.522569    407.48061 
   65700     701.8934   0.33087542    6.0828833  0.048029387         0.02    4.5754231 0.0090839906    83.652038    406.30176 
   65800    702.82954   0.33020069    6.0906683  0.048029387         0.02    4.6035691 0.0094026428    84.333893    405.11783 
   65900     703.7912   0.33028593    6.0983833  0.048029387         0.02    4.7287646 0.0095927234    83.678858     403.9387 
   66000     704.7599   0.33045194    6.1060855  0.048029387         0.02    4.5169813 0.0099251235    82.180747    402.77075 
   66100    705.72491   0.33232913     6.114255  0.048029387         0.02    4.6507055 0.0099008645    82.447908    401.60063 
   66200     706.7203   0.33070723    6.1224606  0.048029387         0.02    3.9355028 0.0099589342    83.949311     400.4193 
   66300    707.70205   0.33060116    6.1305048  0.048029387         0.02    3.8554886 0.0098403255    84.237773    399.23587 
   66400    708.70526   0.33024212    6.1391059  0.048029387         0.02    4.1562137 0.0098831043    83.762196    398.05584 
   66500     709.6942   0.33180812    6.1470184  0.048029387         0.02    4.4930588  0.010407912    83.263254    396.87937 
   66600    710.70452   0.33060667    6.1554228  0.048029387         0.02    4.6117823 0.0097233587    84.563229    395.69357 
   66700    711.70225   0.33115854    6.1635526  0.048029387         0.02    4.0880242  0.010612741    85.407373    394.50194 
   66800    712.65404   0.33161805    6.1716712  0.048029387         0.02    3.9040379 0.0094491546    84.824562    393.31438 
   66900    713.60936    0.3312983    6.1806998  0.048029387         0.02     4.077527  0.010973118    84.295486     392.1305 
   67000     714.6546   0.33129787    6.1893908  0.048029387         0.02    3.8561577  0.010512223    84.083002    390.94809 
   67100    715.69397    0.3309462    6.1977561  0.048029387         0.02    3.7419364  0.010041705    83.318067    389.77101 
   67200    716.72183   0.33156089    6.2069204  0.048029387         0.02    3.9914269  0.010052723    84.778886    388.58377 
   67300    717.77729   0.33170897    6.2158387  0.048029387         0.02    3.9383793   0.01092085    85.787193    387.38982 
   67400    718.85218   0.33179332    6.2253195  0.048029387         0.02    3.9521618  0.010970867    83.907544    386.20858 
   67500     719.9604   0.33086988     6.235403  0.048029387         0.02    4.0243141  0.010146904    84.315177    385.02453 
   67600    721.01712   0.33104735     6.244485  0.048029387         0.02    4.2206134  0.010350304    84.991307    383.83596 
   67700    722.04738   0.33074942    6.2536882  0.048029387         0.02    4.3013175  0.010255058    83.840152    382.65513 
   67800    723.06527   0.33003348    6.2630304  0.048029387         0.02    4.3549617  0.010050906    82.155024    381.48588 
   67900    724.05038   0.33084071    6.2707505  0.048029387         0.02    4.6042247 0.0096110485    84.328976    380.30166 
   68000    725.03043   0.33137249     6.278992  0.048029387         0.02    4.7077746  0.009143395    85.235217     379.1115 
   68100    725.96837   0.33143523    6.2860858  0.048029387         0.02    4.4884191 0.0094160376    83.553637    377.93245 
   68200    726.90968   0.33085801    6.2937342  0.048029387         0.02    4.5506434 0.0093885471    83.265816    376.75528 
   68300    727.84835   0.32965597     6.301529  0.048029387         0.02    4.4446483 0.0093607104     84.30267    375.57118 
   68400    728.77581    0.3298966    6.3097332  0.048029387         0.02    4.2266215  0.011221516    84.048798    374.38873 
   68500    729.86652   0.33276417    6.3185641  0.048029387         0.02    3.7961808  0.011381598    85.887482    373.19455 
   68600    730.99648   0.33260663    6.3280393  0.048029387         0.02    4.0573828   0.01138099    85.065341     372.0056 
   68700    732.10139   0.33094494    6.3369874  0.048029387         0.02    4.4423454  0.011146193    86.105059    370.81023 
   68800    733.21262   0.33100712    6.3466779  0.048029387         0.02    4.5246228  0.010989101    83.266097    369.63291 
   68900    734.29978   0.33004883    6.3555573  0.048029387         0.02    4.5378622  0.010992211    83.348814    368.45498 
   69000    735.39511   0.33076842    6.3658029  0.048029387         0.02    4.0830967  0.011301784    82.405581    367.28317 
   69100    736.51379   0.33018967    6.3758759  0.048029387         0.02    4.1270383  0.011622765    85.089656    366.09411 
   69200    737.60496    0.3302243    6.3857851  0.048029387         0.02    4.1841736  0.011254057    85.000263    364.90564 
   69300    738.71985   0.32983727    6.3953795  0.048029387         0.02    4.2358491  0.011252065    85.664912    363.71317 
   69400    739.80839   0.33057989    6.4041533  0.048029387         0.02    4.3707013  0.011124005    85.228688     362.5234 
   69500    740.91322   0.32997368    6.4139069  0.048029387         0.02    4.3722698  0.010756494    85.360286    361.33288 
   69600    741.94919   0.33077397    6.4227676  0.048029387         0.02    5.1836815 0.0093558775    85.059027    360.14424 
   69700    742.89619   0.33083209     6.430417  0.048029387         0.02    5.4672025 0.0089342997    84.023728    358.96192 
   69800    743.81624   0.33164123    6.4385461  0.048029387         0.02    4.1642889  0.010463657    85.218367    357.77237 
   69900    744.86938   0.33136702    6.4482101  0.048029387         0.02    4.4456988  0.010555079    85.431902     356.5816 
   70000    745.92871   0.33098989    6.4582788  0.048029387         0.02    4.1280915  0.010543843    84.324992    355.39747 
   70100    746.97186   0.33100216    6.4672665  0.048029387         0.02    4.2173526  0.010826732    82.633505    354.22369 
   70200    748.01936   0.33335794    6.4772155  0.048029387         0.02       4.0908   0.01052338    84.104921    353.04082 
   70300    749.09855   0.33109911    6.4878887  0.048029387         0.02    4.0686232  0.010992326    85.348909    351.85061 
   70400    750.21186    0.3317397    6.4985775  0.048029387         0.02    4.1140524  0.011050234    85.118995    350.66178 
   70500    751.27426    0.3316356    6.5077996  0.048029387         0.02    3.8158525  0.010711596    84.856516    349.47452 
   70600    752.31852   0.33150952    6.5173506  0.048029387         0.02    4.1414973   0.01145576     85.69281    348.28249 
   70700    753.41446   0.33081038    6.5274862  0.048029387         0.02     4.282052  0.010667849    85.782789    347.09002 
   70800    754.50201   0.33030808    6.5373865  0.048029387         0.02    4.3003805  0.011001363    85.934272    345.89678 
   70900    755.61866   0.33109427    6.5479094  0.048029387         0.02    4.0960129  0.011582795    85.964707    344.70346 
   71000    756.75526   0.33082075    6.5579556  0.048029387         0.02    4.5028328  0.010763166    82.262692     343.5316 
   71100    757.87056   0.33088552    6.5680717  0.048029387         0.02    4.1198847  0.011444173    85.914275    342.33862 
   71200    758.97303    0.3302194    6.5772083  0.048029387         0.02    3.9710548  0.010787446    84.567593    341.15321 
   71300    760.02412   0.33195756    6.5859733  0.048029387         0.02    4.3186392  0.010399974    84.525992    339.96805 
   71400    760.98105   0.33041847    6.5941157  0.048029387         0.02    4.3225449 0.0092532301    84.579326     338.7826 
   71500    761.99443    0.3300051    6.6029551  0.048029387         0.02    4.4688059  0.010833202    85.652369    337.59125 
   71600    763.04679   0.33034824    6.6116353  0.048029387         0.02    4.6486731  0.010398921    84.593075    336.40577 
   71700    764.12089   0.33209424    6.6197599  0.048029387         0.02    3.9577545  0.011494634     85.38776    335.21595 
   71800    765.27064   0.33017008    6.6298756  0.048029387         0.02    3.9394098  0.011226915    84.869325      334.029 
   71900    766.34062   0.33035914    6.6394317  0.048029387         0.02    4.2603739  0.010234495    84.655446    332.84323 
   72000    767.35692   0.32986243    6.6481177  0.048029387         0.02    4.0334248 0.0098957383     83.46088    331.66405 
   72100    768.38226   0.33045659    6.6568786  0.048029387         0.02    4.1414819  0.010276483    84.595498     330.4786 
   72200    769.40925   0.33060178    6.6652669  0.048029387         0.02    4.1794345  0.010201263    82.988657    329.30197 
   72300    770.40513   0.33061494    6.6737121  0.048029387         0.02    4.1531231 0.0088636465    84.661597    328.11615 
   72400    771.28604   0.32989142    6.6813843  0.048029387         0.02    4.7178399  0.008389478     84.20422    326.93277 
   72500    772.16155   0.33138944    6.6892238  0.048029387         0.02    4.3664079 0.0092942805    85.166542     325.7443 
   72600    773.14545   0.33161552    6.6972997  0.048029387         0.02    4.0624383  0.010510455    86.213659    324.55049 
   72700    774.12631   0.33205799    6.7060967  0.048029387         0.02    4.4090936  0.009630521    85.814749    323.35879 
   72800    775.11176   0.33134993    6.7141932  0.048029387         0.02    3.8871986   0.01103219    83.931269    322.17694 
   72900     776.1714   0.33192296    6.7230719  0.048029387         0.02    4.0050327  0.010347308    84.974037    320.98962 
   73000    777.18885   0.33048166    6.7316486  0.048029387         0.02    4.0079154   0.01040681    84.807925    319.80319 
   73100    778.23664   0.32975794     6.741096  0.048029387         0.02    4.2630448   0.01011506    84.004106    318.62092 
   73200    779.24972   0.33085274    6.7504666  0.048029387         0.02    3.7173619  0.010743804     84.27782    317.43722 
   73300    780.31031   0.33014255    6.7595047  0.048029387         0.02    3.9759205   0.01140837    83.657928    316.25672 
   73400    781.42599   0.33115186    6.7704908  0.048029387         0.02    3.7684252  0.011395215    85.244364    315.06811 
   73500    782.53576   0.33134611    6.7793608  0.048029387         0.02    3.7904621  0.010897899     84.56316    313.88295 
   73600    783.62665   0.33184513    6.7895501  0.048029387         0.02    3.7676056 0.0094921847    84.235066    312.69945 
   73700    784.70324   0.33181071    6.7995174  0.048029387         0.02    3.7654565  0.011396874    84.733055    311.51345 
   73800    785.74444   0.32924552    6.8082874  0.048029387         0.02      4.16094  0.010379377    84.729546    310.32749 
   73900    786.78925   0.32877281    6.8179131  0.048029387         0.02    4.0195104  0.011278663    86.392642    309.13352 
   74000    787.89199    0.3299579    6.8282982  0.048029387         0.02    4.1943885  0.010559279    82.534593    307.95865 
   74100    788.94189   0.32978154    6.8385931  0.048029387         0.02    4.3368514  0.010152574     83.82596    306.77716 
   74200    789.96364   0.33000924    6.8487096  0.048029387         0.02    4.2667134  0.009929325    82.977214    305.59989 
   74300     790.9567   0.32942774    6.8579622  0.048029387         0.02    3.9560931  0.011010341    84.331265    304.41584 
   74400    792.08092   0.33109592    6.8681666  0.048029387         0.02      3.81481  0.011949375    84.669339    303.23016 
   74500    793.22276   0.33013943    6.8791303  0.048029387         0.02    3.7511911  0.011449954    84.912932    302.04334 
   74600    794.32095   0.33031065    6.8888173  0.048029387         0.02    3.7907906  0.010554681    85.392211    300.85428 
   74700     795.3659   0.32950929    6.8982062  0.048029387         0.02    3.9703353  0.010543375    84.280208    299.67051 
   74800    796.41003   0.33153233    6.9067551  0.048029387         0.02    4.1639511   0.01043634     85.02187    298.48325 
   74900    797.41405   0.32959789    6.9154304  0.048029387         0.02    4.3451444 0.0089850972     84.15992    297.30005 
   75000    798.39215   0.33047818      6.92379  0.048029387         0.02    4.2237111  0.010182122    85.754043    296.10948 
   75100    799.40877   0.33090776    6.9322484  0.048029387         0.02    4.5308985   0.01024028    86.424595    294.91597 
   75200    800.43053   0.33153074    6.9407569  0.048029387         0.02     4.340476  0.010110724    84.687905    293.73038 
   75300    801.45382   0.33134745    6.9505459  0.048029387         0.02    4.1512316  0.010256207    84.098715    292.54752 
   75400    802.49611   0.33021578    6.9600477  0.048029387         0.02    4.1961201  0.010431665    84.313533    291.36365 
   75500    803.55983   0.33085983    6.9684281  0.048029387         0.02    4.3469585  0.010720719     84.22989    290.18016 
   75600    804.59546   0.33076791    6.9762511  0.048029387         0.02    4.5647807 0.0099874983    85.027299    288.99307 
   75700    805.59936   0.33047235    6.9839567  0.048029387         0.02    4.6203404 0.0096891962    83.734203    287.81184 
   75800    806.58188   0.33035101    6.9919949  0.048029387         0.02    4.3698416  0.010016206    84.515143    286.62705 
   75900    807.59905   0.33190843    7.0001737  0.048029387         0.02     4.480755  0.010487817    80.831335    285.45938 
   76000     808.6359   0.33007781    7.0086888  0.048029387         0.02     4.553193  0.010304325    79.930115    284.29594 
   76100    809.65901   0.33170548    7.0166402  0.048029387         0.02     3.997561  0.010102254    80.674431    283.12864 
   76200      810.675   0.33059843    7.0252437  0.048029387         0.02    4.1517382  0.010169708    84.083222    281.94546 
   76300    811.69981   0.33256651    7.0335598  0.048029387         0.02    4.1951423  0.010350528    84.995268    280.75829 
   76400    812.73603   0.33208839    7.0426518  0.048029387         0.02    4.4495195  0.010494679    85.383901     279.5695 
   76500    813.78617   0.33132657    7.0515062  0.048029387         0.02    4.3321248  0.010495232    84.723367    278.38357 
   76600    814.77112     0.331277    7.0592501  0.048029387         0.02    4.5618707 0.0096065052    83.754401    277.20181 
   76700    815.77197   0.33195202    7.0674861  0.048029387         0.02    3.9282524 0.0097508694    85.125507    276.01419 
   76800    816.84015   0.33286765    7.0765297  0.048029387         0.02    4.7600377  0.010216348    84.434142     274.8295 
   76900    817.89125   0.33199427    7.0850725  0.048029387         0.02    4.1090275  0.010661578    84.988844    273.64249 
   77000     818.9189   0.33141117    7.0932426  0.048029387         0.02    3.9606075 0.0099287484    83.257783    272.46282 
   77100    819.91099   0.33146282    7.1012273  0.048029387         0.02    4.1924506  0.010795711    85.012461    271.27572 
   77200    820.92859   0.33097806    7.1098603  0.048029387         0.02    4.8100448  0.009857362    84.764152    270.08968 
   77300    821.92415   0.33198535    7.1182403  0.048029387         0.02    4.8111401  0.009436477    85.209434    268.90183 
   77400    822.91808   0.33099789    7.1266345  0.048029387         0.02    4.3145104  0.010572284    84.648714     267.7163 
   77500    823.98243   0.33109112    7.1347117  0.048029387         0.02    3.9995407  0.010872548    86.218852    266.52453 
   77600     825.0502   0.33075694    7.1431677  0.048029387         0.02     4.307936 0.0093102968    84.551807    265.33944 
   77700     826.0414   0.33049309    7.1507612  0.048029387         0.02    4.3889415  0.010287196    84.551926    264.15436 
   77800    827.07935   0.33001449    7.1585804  0.048029387         0.02    4.4152807 0.0099878727    83.799616    262.97232 
   77900    828.09862   0.32967297    7.1671482  0.048029387         0.02    3.9747916 0.0096963029    84.723213    261.78655 
   78000    829.12075    0.3316619    7.1748619  0.048029387         0.02    4.6525338  0.010384526     83.77133    260.60458 
   78100    830.14734   0.33007805    7.1830983  0.048029387         0.02    4.9055305 0.0097132146    82.816963    259.42644 
   78200    831.17837   0.33095182       7.1919  0.048029387         0.02    4.2582589  0.010157227    84.526776    258.24142 
   78300    832.20347   0.33127364    7.2002399  0.048029387         0.02    4.0391365  0.010729333    85.145518    257.05402 
   78400    833.18325    0.3285313    7.2081043  0.048029387         0.02    4.2618792 0.0097913966    83.654141    255.87242 
   78500    834.22352    0.3306771    7.2167212  0.048029387         0.02    4.0012446   0.01020272     85.46893    254.68383 
   78600    835.13547   0.33046611    7.2239548  0.048029387         0.02    3.8874611 0.0087227883    84.860757    253.49757 
   78700    836.01572   0.33138576    7.2303451  0.048029387         0.02     3.961346 0.0085950346    84.590977    252.31235 
   78800    837.09017   0.33045287    7.2387903  0.048029387         0.02     3.799655  0.011084503    85.278906    251.12457 
   78900    838.18533   0.33132749    7.2477474  0.048029387         0.02    4.3186412  0.010922413    85.108839    249.93746 
   79000    839.26062   0.32906027    7.2568762  0.048029387         0.02    4.1104653  0.010713272     81.74664    248.76323 
   79100    840.34329   0.33016449    7.2649144  0.048029387         0.02    4.1231847  0.010768926    83.408052    247.58243 
   79200    841.44268   0.32995019    7.2735284  0.048029387         0.02    3.8053428  0.010152651    84.786067    246.39647 
   79300    842.51567   0.33174554    7.2811827  0.048029387         0.02    3.7097424  0.011451477    85.970627    245.20628 
   79400    843.57063   0.33097195    7.2898803  0.048029387         0.02    3.8849854  0.010492635    86.771062    244.01338 
   79500    844.59036    0.3311009    7.2970486  0.048029387         0.02    4.3564626  0.010036838    83.550641    242.83203 
   79600    845.64047   0.33033185    7.3051397  0.048029387         0.02    4.0685142  0.010905228    84.614595    241.64679 
   79700    846.67376   0.33111469    7.3136482  0.048029387         0.02    3.8752938  0.010248605    86.095568    240.45637 
   79800    847.72174   0.33031991    7.3216055  0.048029387         0.02    4.3728402  0.010417863    85.438254     239.2683 
   79900    848.78764   0.32995692    7.3293463  0.048029387         0.02    3.7610605  0.011210604    85.118045    238.08137 
   80000    849.83729   0.33104927    7.3368973  0.048029387         0.02    3.8905327  0.010681493    85.084081    236.89459 
   80100    850.87295   0.33053492    7.3442119  0.048029387         0.02    3.7012005   0.01057931    84.222092    235.71083 
   80200    851.89329   0.33047224    7.3516056  0.048029387         0.02    4.6515456  0.010284973    84.467589    234.52621 
   80300    852.94387    0.3302287    7.3590098  0.048029387         0.02    4.6441027  0.010227391     86.01839    233.33635 
   80400    854.01982   0.33030858    7.3664436  0.048029387         0.02    4.4630983  0.010609458     85.14863    232.14946 
   80500    855.09947   0.32915171    7.3743094  0.048029387         0.02    3.8991053  0.011288896     85.32941    230.96199 
   80600    856.18967   0.33068983     7.382212  0.048029387         0.02     4.008543  0.010522698    86.346009    229.77124 
   80700    857.23873   0.33081788    7.3907351  0.048029387         0.02    3.8219229  0.010385609    84.220824    228.58756 
   80800    858.27083   0.33084783     7.398921  0.048029387         0.02    4.1291162  0.010312621    85.988587    227.39808 
   80900    859.29125   0.33016679    7.4068876  0.048029387         0.02    4.4587468  0.011091115    84.158923    226.21462 
   81000     860.3856   0.33029464    7.4148469  0.048029387         0.02    4.4668912  0.010969213    84.787593    225.02909 
   81100    861.41668   0.33048159    7.4224407  0.048029387         0.02    4.4612026  0.010256533    84.337929    223.84504 
   81200    862.39933   0.33107783    7.4291576  0.048029387         0.02    4.8390083  0.010066757    85.159591    222.65834 
   81300    863.39232    0.3290739    7.4368566  0.048029387         0.02    5.0147759 0.0096464568    85.616073    221.47023 
   81400    864.38045   0.33010208    7.4439113  0.048029387         0.02    4.8304784 0.0098728204    85.636525     220.2821 
   81500    865.35865    0.3306292    7.4519106  0.048029387         0.02     4.885293 0.0096658471    83.796803    219.09984 
   81600    866.32168   0.33006206    7.4597527  0.048029387         0.02    4.9292269 0.0095809913    83.314228    217.91911 
   81700    867.25798   0.33024756    7.4674561  0.048029387         0.02    5.0454279 0.0093686463    85.913607     216.7302 
   81800    868.18202   0.33057912    7.4753502  0.048029387         0.02    4.9333468 0.0089710695    82.834676    215.55098 
   81900    869.17035   0.33085387    7.4832577  0.048029387         0.02    3.9159245  0.010284302    85.500849    214.36337 
   82000    870.17928   0.33130867    7.4918893  0.048029387         0.02    3.9050027  0.010447241    85.131658    213.17692 
   82100    871.24514    0.3310823    7.5005339  0.048029387         0.02    4.5113435  0.010180342    83.816747    211.99452 
   82200    872.26508   0.32987409    7.5088819  0.048029387         0.02     4.819162  0.010080941    84.789598    210.80912 
   82300    873.27908   0.32969195    7.5166392  0.048029387         0.02    4.2627601  0.010148357    85.076263    209.62288 
   82400    874.28991     0.329748    7.5245114  0.048029387         0.02    4.3577512  0.010153124    86.373392     208.4329 
   82500    875.28838   0.33034605    7.5329192  0.048029387         0.02     4.857778 0.0099025525     84.96963    207.24706 
   82600    876.27368   0.33144616    7.5416039  0.048029387         0.02    4.9345698 0.0096550753    85.713684    206.05908 
   82700    877.33578   0.33191718    7.5509596  0.048029387         0.02    4.1885628  0.011219243    85.921791    204.87057 
   82800     878.3906   0.33147527    7.5590928  0.048029387         0.02    4.0415271  0.011500739    85.146677    203.68431 
   82900    879.51311   0.33096489    7.5684919  0.048029387         0.02    3.8485078  0.010723755    85.196072    202.49795 
   83000    880.59439   0.33034753    7.5767287  0.048029387         0.02    4.0607791  0.010297145    85.691357    201.31022 
   83100    881.64085   0.33118483    7.5848308  0.048029387         0.02    4.2764164  0.010551548    83.974472     200.1274 
   83200    882.67438   0.33228923    7.5927193  0.048029387         0.02    4.2319859  0.010048351    85.214298    198.94106 
   83300    883.72857   0.33138292    7.6029281  0.048029387         0.02    4.3955237  0.010778585    85.106386    197.75505 
   83400    884.78611   0.33126974    7.6125029  0.048029387         0.02    4.0670604  0.010253717    84.931674    196.56954 
   83500    885.77502   0.33107916    7.6213218  0.048029387         0.02    4.4504817 0.0093945283    84.245573    195.38595 
   83600    886.80861   0.32999112    7.6312924  0.048029387         0.02    3.6519893  0.010898284    84.481438     194.2017 
   83700    887.88293   0.33216813    7.6414343  0.048029387         0.02    3.7170049  0.011185871    85.961236    193.01349 
   83800    888.98523   0.33143614    7.6501471  0.048029387         0.02    3.6743997  0.010857697    85.364143     191.8269 
   83900    890.06391   0.33184677    7.6589046  0.048029387         0.02    3.9248318   0.01008093    85.952904    190.63882 
   84000     891.0765   0.33164814    7.6670219  0.048029387         0.02    3.8290834  0.010094753    85.414661    189.45219 
   84100    892.10606   0.33165634    7.6762278  0.048029387         0.02     4.161079  0.010702011    84.899818    188.26693 
   84200    893.13755   0.33211643    7.6854922  0.048029387         0.02    4.5193422  0.010511481    86.594854    187.07737 
   84300    894.19614   0.33063576    7.6957905  0.048029387         0.02    4.3290399  0.010654966    84.312618    185.89372 
   84400    895.18657   0.33155504    7.7040846  0.048029387         0.02    3.9603186  0.010191833    85.073088     184.7081 
   84500     896.2175   0.33124497    7.7131287  0.048029387         0.02     4.135602  0.010326827    85.416418    183.52163 
   84600    897.22189   0.33234881    7.7220473  0.048029387         0.02    4.5768973 0.0097609119    85.679681    182.33455 
   84700     898.1737   0.33160591    7.7300594  0.048029387         0.02    4.5844492 0.0092766763    84.203223    181.15121 
   84800    899.15964   0.33187437    7.7398417  0.048029387         0.02    4.7587149 0.0099031651     83.41973    179.96986 
   84900    900.14531   0.33155433    7.7482188  0.048029387         0.02    4.6230299 0.0098142499    84.592205    178.78552 
   85000    901.12801   0.33137454    7.7571332  0.048029387         0.02    5.0012668 0.0098439495    84.394167    177.60167 
   85100    902.15766   0.33094239    7.7655178  0.048029387         0.02    4.5877538  0.010365332    85.426647    176.41531 
   85200    903.21385   0.33030689    7.7740037  0.048029387         0.02    4.6672071  0.010647367    84.714315    175.23069 
   85300    904.26896   0.33082009    7.7838074  0.048029387         0.02    4.3596631  0.011170215    83.686354    174.04859 
   85400    905.21039   0.33051588    7.7912052  0.048029387         0.02    4.3227665 0.0093964377    82.704302    172.86888 
   85500    906.14858   0.32963179    7.7996087  0.048029387         0.02    4.3780028   0.01061792    84.339353    171.68513 
   85600    907.20362   0.32983796    7.8084058  0.048029387         0.02    4.3861696  0.010691507    85.408486    170.49887 
   85700    908.27847   0.33167416    7.8166157  0.048029387         0.02    4.3010173  0.010802424    84.231378    169.31538 
   85800    909.35025   0.33043251     7.826013  0.048029387         0.02    3.9355786  0.010666536    84.767955    168.13064 
   85900    910.39264    0.3315755    7.8345838  0.048029387         0.02     4.688791 0.0098032248    85.109426    166.94514 
   86000      911.379    0.3312566    7.8430353  0.048029387         0.02    4.9570505 0.0098341749    84.727817    165.76052 
   86100    912.36054   0.33208809     7.850323  0.048029387         0.02    4.6024246 0.0092100891    83.978557    164.57761 
   86200    913.33742   0.33134464    7.8585271  0.048029387         0.02    4.5979702  0.010346147    85.813204    163.39061 
   86300     914.3094   0.33158808    7.8659301  0.048029387         0.02    5.2914577 0.0093354109     85.53778    162.20425 
   86400    915.23957   0.33126749    7.8734866  0.048029387         0.02    5.3589981 0.0092281708    84.902396    161.01931 
   86500    916.17469   0.33224279    7.8806397  0.048029387         0.02     5.295558 0.0093653775    85.393376    159.83333 
   86600    917.10759   0.33159883    7.8883802  0.048029387         0.02    5.3414554 0.0093052595    83.990564    158.65041 
   86700    918.03379   0.33127619    7.8960367  0.048029387         0.02    5.4318541 0.0091427555     83.97469     157.4675 
   86800    918.94083   0.33112609    7.9037001  0.048029387         0.02    5.4678062 0.0090237432    84.140521    156.28422 
   86900    919.84642     0.330427    7.9116571  0.048029387         0.02    5.4697909  0.009096456    85.475131    155.09814 
   87000    920.76799   0.33115942    7.9196734  0.048029387         0.02    5.4419566 0.0091703555    84.296283    153.91453 
   87100    921.64337   0.33175309    7.9261823  0.048029387         0.02    5.7404305 0.0085448764    83.944942    152.73165 
   87200    922.51887   0.33151921    7.9334411  0.048029387         0.02    5.5259857 0.0087763828      85.0523    151.54648 
   87300    923.42166   0.33119621    7.9417003  0.048029387         0.02    3.9830837 0.0093301335    85.273011    150.36089 
   87400    924.36957   0.33166984    7.9488544  0.048029387         0.02    4.3179448 0.0097065343    83.965595    149.17795 
   87500    925.35857   0.33199912    7.9558761  0.048029387         0.02    4.4803007  0.010031425    84.705641    147.99352 
   87600    926.35346   0.33077468    7.9644155  0.048029387         0.02    4.0735753 0.0096904627    83.743314    146.81101 
   87700     927.3624   0.33101531     7.972825  0.048029387         0.02    4.0132758  0.010400223    83.417524    145.62913 
   87800    928.42919   0.33097615    7.9812214  0.048029387         0.02    4.2020757  0.011137076    84.983644    144.44414 
   87900    929.47336   0.33039729    7.9893322  0.048029387         0.02     4.432543  0.010051988     83.97701    143.26111 
   88000    930.47499   0.33081402    7.9979515  0.048029387         0.02    4.4060686  0.010073621    83.200079    142.07959 
   88100      931.485   0.33041366     8.006542  0.048029387         0.02    4.5771278  0.010407323    83.445156    140.89753 
   88200    932.51411   0.33189908    8.0154072  0.048029387         0.02    4.4449895  0.010315235    85.837123    139.71098 
   88300    933.56667   0.33036897    8.0247745  0.048029387         0.02    4.3820778  0.011001761    84.089863    138.52768 
   88400    934.63776   0.33101901    8.0333601  0.048029387         0.02    4.4792058   0.01028555    84.700612    137.34324 
   88500    935.68634   0.32983148    8.0417142  0.048029387         0.02    4.1069933  0.011103724    85.813784    136.15682 
   88600     936.7787   0.33036357    8.0510777  0.048029387         0.02    4.3144824  0.010759553    84.967908    134.97194 
   88700    937.88199   0.33094026    8.0598758  0.048029387         0.02    4.3869453  0.010366982      84.9352    133.78713 
   88800    938.93334    0.3307779    8.0682635  0.048029387         0.02    4.3100974  0.010472198    85.050437    132.60214 
   88900    939.96697   0.33057003     8.076276  0.048029387         0.02    4.4504898  0.010742369    83.994584    131.41902 
   89000    941.03733   0.33243954    8.0849763  0.048029387         0.02    4.2661594   0.01095686    84.092966    130.23571 
   89100    942.12463   0.33173515    8.0947196  0.048029387         0.02    3.9268688  0.011092519    83.397686    129.05359 
   89200    943.23899   0.33109463    8.1042607  0.048029387         0.02    4.0860586  0.011181685    86.114323    127.86686 
   89300    944.34604   0.33104275    8.1134526  0.048029387         0.02    4.0592255   0.01121103    85.043936    126.68194 
   89400    945.44994   0.33013369    8.1220585  0.048029387         0.02    4.2182567  0.010622921    84.030293    125.49872 
   89500    946.53013    0.3304809    8.1309555  0.048029387         0.02    4.0323609  0.010939246    86.410921    124.31164 
   89600     947.5898    0.3305015    8.1387645  0.048029387         0.02     4.102468 0.0099992837    85.276149    123.12641 
   89700    948.61052    0.3318038    8.1467614  0.048029387         0.02    4.2306138  0.010370142    84.592273     121.9423 
   89800    949.62244    0.3309761    8.1548435  0.048029387         0.02    4.0757266 0.0096915308    86.480941    120.75526 
   89900    950.60104   0.33118116    8.1619977  0.048029387         0.02    4.4202529 0.0098118798    85.703771    119.56947 
   90000    951.59947   0.33084165    8.1701045  0.048029387         0.02    4.3893606  0.011015355    84.495495    118.38558 
   90100    952.69311   0.33200012    8.1788718  0.048029387         0.02    4.0913289  0.010394184    85.074658     117.2008 
   90200    953.73205   0.33101704    8.1868596  0.048029387         0.02    4.3013037 0.0099259202    84.850319    116.01637 
   90300    954.68335   0.33196189    8.1939182  0.048029387         0.02    4.1048946 0.0093866875    83.669627    114.83375 
   90400     955.6681   0.33085484    8.2022104  0.048029387         0.02    4.1448068   0.01050623    84.258621    113.65021 
   90500    956.71355    0.3312069    8.2123285  0.048029387         0.02    4.1872145   0.01030511    82.944396    112.46864 
   90600    957.76959    0.3296854    8.2213055  0.048029387         0.02    4.0775149 0.0098344356    84.096725     111.2853 
   90700    958.85487   0.33117206    8.2303412  0.048029387         0.02     4.041931  0.011155027    86.299444    110.09884 
   90800    959.90889   0.33138956     8.239788  0.048029387         0.02    3.8852357  0.010260513    84.180898    108.91539 
   90900    961.00664   0.33110413    8.2484408  0.048029387         0.02    3.7462528  0.011624955    84.353652    107.73169 
   91000    962.10543   0.32986883    8.2560752  0.048029387         0.02    3.8881256  0.010634182    83.814435    106.54874 
   91100    963.16222   0.32989892    8.2643746  0.048029387         0.02    3.8163996  0.010955857    85.229986    105.36383 
   91200    964.23396   0.33109135    8.2727449  0.048029387         0.02    4.4283757  0.011018539      84.2157    104.18031 
   91300    965.35449   0.33085561     8.282552  0.048029387         0.02     4.477647  0.010931744    84.075721    102.99697 
   91400    966.40211   0.33006029    8.2921062  0.048029387         0.02    4.2907689  0.010717273    86.366082    101.81065 
   91500     967.3797    0.3300481    8.3003002  0.048029387         0.02    4.9223655 0.0091019809    85.103693    100.62599 
   91600    968.32334   0.33127298    8.3076551  0.048029387         0.02    4.1678786  0.010190301    85.610288    99.440712 
   91700    969.35028   0.32941173    8.3162728  0.048029387         0.02    4.0911477  0.010296678    85.527681    98.255572 
   91800    970.45157   0.32901327    8.3253812  0.048029387         0.02    4.0035653  0.011087715    84.274484    97.072019 
   91900    971.57402   0.32901258    8.3346929  0.048029387         0.02    3.8348205  0.010961008    84.800158    95.887812 
   92000    972.66128   0.33010292    8.3424378  0.048029387         0.02    4.6133789  0.010258365    84.092898    94.704478 
   92100    973.69209   0.32975873    8.3501868  0.048029387         0.02    4.3201318 0.0099891391     85.41854    93.519548 
   92200    974.75116   0.33023431    8.3581953  0.048029387         0.02    4.1153854  0.010491287    85.606549    92.334432 
   92300    975.80451   0.32998805     8.366827  0.048029387         0.02    3.9072759  0.010242259    84.704272    91.150391 
   92400    976.85924   0.33088622    8.3749128  0.048029387         0.02    4.0154894  0.010753201    85.459196    89.965499 
   92500    977.88246    0.3310427    8.3825442  0.048029387         0.02    4.3439714 0.0095723798    84.306449    88.781936 
   92600    978.82268   0.33040576    8.3894454  0.048029387         0.02    3.8903475 0.0093590869    84.383334    87.598282 
   92700    979.80251   0.33065775    8.3973724  0.048029387         0.02    4.0399797 0.0098531824    86.010787    86.412858 
   92800    980.79197   0.33045923    8.4048504  0.048029387         0.02    4.1584715  0.010080677    84.063555    85.229574 
   92900     981.8111   0.33121656    8.4136124  0.048029387         0.02    4.1173201  0.010394557    85.131969    84.045134 
   93000    982.80548   0.33186781    8.4217307  0.048029387         0.02    4.3306098  0.009629673     82.03156    82.864058 
   93100    983.82866     0.328989    8.4303715  0.048029387         0.02    4.3001609  0.010752045    84.960112    81.679785 
   93200    984.90172   0.33115228    8.4393268  0.048029387         0.02    4.4573712  0.010232332    85.509547    80.494976 
   93300     985.9088   0.33075131    8.4478107  0.048029387         0.02    4.3409539 0.0096311793    85.458325    79.310251 
   93400    986.90985   0.33135297    8.4565906  0.048029387         0.02    4.0363459  0.010312989    85.718887    78.125305 
   93500    987.96663   0.33136245    8.4653247  0.048029387         0.02    4.3019061  0.010645759     86.28075    76.939871 
   93600    989.02344   0.33082781    8.4740706  0.048029387         0.02    4.6520798 0.0095916499    85.655238    75.755071 
   93700    990.07241   0.33029257    8.4829428  0.048029387         0.02    4.3462142  0.010529272    85.969376    74.570022 
   93800    991.12436    0.3312275    8.4909447  0.048029387         0.02    4.1655792  0.010883374    85.803022    73.385169 
   93900    992.19937   0.33154264    8.5004833  0.048029387         0.02     4.742936  0.010424778    86.094826      72.2001 
   94000    993.27741   0.33060537    8.5098709  0.048029387         0.02    4.1992232  0.010863758    85.574971    71.015532 
   94100     994.3435   0.33192353     8.518574  0.048029387         0.02    3.9939578 0.0095020496    83.765843     69.83258 
   94200     995.3278   0.33195144    8.5268724  0.048029387         0.02    4.2817022 0.0099645449    86.420784    68.647347 
   94300    996.36648   0.32983796    8.5356293  0.048029387         0.02    3.9401875  0.010209745    85.052973    67.463298 
   94400    997.46837   0.32951301    8.5440401  0.048029387         0.02    3.9351541  0.011515625    86.972021    66.277728 
   94500    998.55147   0.33016563    8.5526892  0.048029387         0.02    4.2289585  0.010965288    85.677686    65.093245 
   94600    999.59723   0.33097154     8.561417  0.048029387         0.02    4.8383034  0.010088953    85.856662    63.908659 
   94700    1000.6199    0.3324882    8.5696053  0.048029387         0.02    4.2718884  0.010111177    85.978839    62.724023 
   94800    1001.6086   0.33147086    8.5778373  0.048029387         0.02    3.9905986  0.010142437    84.683819    61.540407 
   94900    1002.6322   0.33157456    8.5867124  0.048029387         0.02     3.978531  0.011330563    84.111077     60.35723 
   95000    1003.7463   0.33091452    8.5956179  0.048029387         0.02    4.0249332  0.010379097    83.551823    59.174459 
   95100    1004.7728   0.33082707    8.6031922  0.048029387         0.02     4.074466  0.010515455    84.084132    57.991269 
   95200    1005.8203   0.33106606    8.6113993  0.048029387         0.02    4.1885133  0.010283104    83.725461    56.808322 
   95300    1006.8427   0.33043909    8.6200726  0.048029387         0.02    4.3805274  0.010245744    83.301536    55.625652 
   95400    1007.8538   0.33023911    8.6275577  0.048029387         0.02     4.302823  0.010222904    85.037694    54.441762 
   95500    1008.8834   0.32979518    8.6356913  0.048029387         0.02    4.3055905  0.010141969    84.738875    53.258084 
   95600    1009.9073    0.3291898    8.6448005  0.048029387         0.02    4.0923002  0.010311135    84.541718    52.074541 
   95700    1010.9253   0.33030011    8.6523728  0.048029387         0.02    4.1409538  0.011515904    83.095542    50.891923 
   95800    1012.0076   0.32938509    8.6613094  0.048029387         0.02    4.5897642  0.010167459    84.446552    49.708419 
   95900    1012.9931   0.33162536    8.6691631  0.048029387         0.02    4.5868722 0.0099061423    84.219945    48.525049 
   96000     1013.975   0.32982721    8.6783195  0.048029387         0.02    4.8215894 0.0096605627     82.32235    47.342811 
   96100    1014.9203   0.32984611    8.6868538  0.048029387         0.02    4.6946296 0.0095383306    85.373995    46.158743 
   96200    1015.8682    0.3313002    8.6943856  0.048029387         0.02     4.815687  0.009308944    84.895333    44.974963 
   96300    1016.8452   0.32997676    8.7025307  0.048029387         0.02    4.3880255  0.010396434    85.091607    43.791091 
   96400    1017.8665   0.32944128    8.7106357  0.048029387         0.02    4.0971214  0.010275747    84.603364     42.60749 
   96500     1018.878   0.33079564    8.7182238  0.048029387         0.02    4.1667871  0.011118773    84.229331    41.424082 
   96600    1019.8653   0.33051801    8.7265462  0.048029387         0.02    3.8383882 0.0099572155    84.815488    40.240378 
   96700    1020.8638   0.33162379     8.734961  0.048029387         0.02    4.3585262  0.010657974    85.201956    39.056501 
   96800    1021.9212   0.33163444    8.7439141  0.048029387         0.02    4.4496715  0.011023372    84.075721    37.873165 
   96900    1023.0057   0.33118536    8.7533668  0.048029387         0.02    4.1489175  0.011194784    84.013764    36.689844 
   97000    1024.0535     0.330968    8.7619218  0.048029387         0.02    4.1516237  0.010440626     84.02154    35.506506 
   97100    1025.0993   0.33010977    8.7701485  0.048029387         0.02    4.2788416  0.010116649    83.084646    34.323554 
   97200    1026.1634   0.33106914     8.778152  0.048029387         0.02    4.1606604  0.010952057     84.92323     33.13981 
   97300    1027.2071   0.33070425    8.7861964  0.048029387         0.02    4.0675899  0.010601339    83.992398     31.95644 
   97400    1028.2733   0.33053591    8.7938834  0.048029387         0.02    3.9239049  0.010663865    85.741597    30.772407 
   97500    1029.2837   0.33128931     8.802521  0.048029387         0.02    3.9280129  0.010400943    84.751717    29.588759 
   97600    1030.3369   0.33033922    8.8115864  0.048029387         0.02    3.9738595  0.010804846    84.238839    28.405296 
   97700    1031.3713   0.33093974    8.8199244  0.048029387         0.02    4.6555069  0.010206249    85.552558    27.221397 
   97800    1032.4495   0.33087002    8.8290515  0.048029387         0.02    3.9918142  0.011403773    85.400974    26.037574 
   97900    1033.5644   0.33091427    8.8380052  0.048029387         0.02     4.224016  0.011465257    85.080318    24.853873 
   98000    1034.6567   0.32956122    8.8475915  0.048029387         0.02    4.5279538   0.01036436    83.115631    23.670756 
   98100    1035.7321   0.33127495    8.8559576  0.048029387         0.02    3.9294929  0.011564031    84.518498    22.487211 
   98200    1036.8652   0.32922862    8.8658786  0.048029387         0.02    3.6659101  0.011449121    82.174404    21.304286 
   98300    1037.9904    0.3292788    8.8746872  0.048029387         0.02    3.9399601 0.0097203792    82.059357     20.12132 
   98400    1038.9918   0.32912912    8.8824497  0.048029387         0.02    3.9678677 0.0097465285    82.906293     18.93808 
   98500    1040.0849   0.32942804    8.8910906  0.048029387         0.02    4.2718556  0.010889663    84.805199    17.754383 
   98600    1041.1679   0.32960871    8.9008207  0.048029387         0.02     3.915016  0.010988565    83.689577    16.570917 
   98700    1042.2555   0.32910597    8.9094035  0.048029387         0.02    4.2575504  0.010474859    84.029805    15.387365 
   98800    1043.3113   0.33015059    8.9178525  0.048029387         0.02    4.6903166  0.010194103    85.270827    14.203589 
   98900    1044.3563   0.33148932    8.9264697  0.048029387         0.02    4.5422278  0.010747278    83.785705    13.020066 
   99000    1045.4186   0.33057811    8.9345284  0.048029387         0.02    4.5604289  0.010710144    84.291234    11.836451 
   99100    1046.4872    0.3316989    8.9427142  0.048029387         0.02    3.8931524  0.010751943    83.662183    10.652912 
   99200    1047.5728   0.33019973    8.9522699  0.048029387         0.02    3.9834617  0.011798831    86.255466     9.469059 
   99300    1048.7535   0.32982085    8.9610013  0.048029387         0.02     3.898965  0.011560253    84.545637    8.2854207 
   99400    1049.8844     0.330073    8.9707492  0.048029387         0.02    3.8624144  0.010807967    85.382233    7.1017142 
   99500    1050.9848   0.33065796    8.9804924  0.048029387         0.02     4.064096  0.011114306    84.679305    5.9180816 
   99600    1052.0863    0.3298521    8.9898593  0.048029387         0.02    4.1236005  0.011067712    82.410406    4.7345851 
   99700    1053.1413   0.32982541    8.9982811  0.048029387         0.02    4.0322061  0.011112903    81.959827    3.5510485 
   99800    1054.2417   0.33097716    9.0076069  0.048029387         0.02    4.0977244  0.010725243    83.114396    2.3674047 
   99900    1055.3053    0.3309792    9.0163216  0.048029387         0.02    4.3578112   0.01074936    85.249163    1.1836917 
  100000    1056.3691    0.3296346    9.0249004  0.048029387         0.02    4.4213671    0.0106131     83.24544            0 
Loop time of 1183.71 on 4 procs for 100000 steps with 176267 atoms

Performance: 77465.966 tau/day, 84.480 timesteps/s
217.6% CPU use with 1 MPI tasks x 4 OpenMP threads

MPI task timing breakdown:
Section |  min time  |  avg time  |  max time  |%varavg| %total
---------------------------------------------------------------
Pair    | 370.21     | 370.21     | 370.21     |   0.0 | 31.28
Neigh   | 17.917     | 17.917     | 17.917     |   0.0 |  1.51
Comm    | 132.9      | 132.9      | 132.9      |   0.0 | 11.23
Output  | 3.3873     | 3.3873     | 3.3873     |   0.0 |  0.29
Modify  | 588.23     | 588.23     | 588.23     |   0.0 | 49.69
Other   |            | 71.06      |            |       |  6.00

Nlocal:    176267 ave 176267 max 176267 min
Histogram: 1 0 0 0 0 0 0 0 0 0
Nghost:    66732 ave 66732 max 66732 min
Histogram: 1 0 0 0 0 0 0 0 0 0
Neighs:    0 ave 0 max 0 min
Histogram: 1 0 0 0 0 0 0 0 0 0

Total # of neighbors = 0
Ave neighs/atom = 0
Neighbor list builds = 29373
Dangerous builds = 0

Please see the log.cite file for references relevant to this simulation

Total wall time: 0:20:34
