#package gpu 1
#suffix gpu
#variable rho equal 0.05

units lj
atom_style atomic

lattice fcc 0.975
Lattice spacing in x,y,z = 1.60085 1.60085 1.60085
region box block 0 60 0 30 0 30
create_box 2 box
Created orthogonal box = (0 0 0) to (96.0513 48.0256 48.0256)
  1 by 1 by 1 MPI processor grid
create_atoms 1 box
Created 216000 atoms
  Time spent = 0.0403681 secs
mass 1 4.0
mass 2 0.5


pair_style lj/cut 2.5
pair_coeff 1 1 1.0 1.0 2.5
pair_coeff 2 2 0.5 0.88 2.5
pair_coeff 1 2 0.2 1.0 2.5
#pair_coeff 1 2 1.5 0.8 2.5
pair_modify mix geometric
neigh_modify every 1 delay 0 check yes

variable R equal 12
region cylinder1 cylinder x $(0.5*ly) $(0.5*lz) $R EDGE EDGE units box
region cylinder1 cylinder x 24.012813670346833561 $(0.5*lz) $R EDGE EDGE units box
region cylinder1 cylinder x 24.012813670346833561 24.012813670346833561 $R EDGE EDGE units box
region cylinder1 cylinder x 24.012813670346833561 24.012813670346833561 12 EDGE EDGE units box

group cylinder1 region cylinder1
41820 atoms in group cylinder1
variable V equal PI*v_R*v_R*lx
# variable rho equal 0.1
variable natoms equal $V*${rho}
variable natoms equal 43452.5639148185*${rho}
variable natoms equal 43452.5639148185*0.40
variable natoms_in_cylinder equal count(cylinder1)
variable delete_fraction equal (${natoms_in_cylinder}-${natoms})/${natoms_in_cylinder}
variable delete_fraction equal (41820-${natoms})/${natoms_in_cylinder}
variable delete_fraction equal (41820-17381.0255659274)/${natoms_in_cylinder}
variable delete_fraction equal (41820-17381.0255659274)/41820
set group cylinder1 type 2
  41820 settings made for type
delete_atoms porosity cylinder1 ${delete_fraction} 12345
delete_atoms porosity cylinder1 0.58438485016912 12345
Deleted 24460 atoms, new total = 191540
#delete_atoms region cylinder1

region cylinder2 cylinder x $(0.5*ly) $(0.5*lz) $(v_R+6) EDGE EDGE units box
region cylinder2 cylinder x 24.012813670346833561 $(0.5*lz) $(v_R+6) EDGE EDGE units box
region cylinder2 cylinder x 24.012813670346833561 24.012813670346833561 $(v_R+6) EDGE EDGE units box
region cylinder2 cylinder x 24.012813670346833561 24.012813670346833561 18 EDGE EDGE units box
region cylinder3 cylinder x $(0.5*ly) $(0.5*lz) $(v_R+9) EDGE EDGE units box
region cylinder3 cylinder x 24.012813670346833561 $(0.5*lz) $(v_R+9) EDGE EDGE units box
region cylinder3 cylinder x 24.012813670346833561 24.012813670346833561 $(v_R+9) EDGE EDGE units box
region cylinder3 cylinder x 24.012813670346833561 24.012813670346833561 21 EDGE EDGE units box
group cylinder2 region cylinder2
71360 atoms in group cylinder2
group cylinder3 region cylinder3
105200 atoms in group cylinder3

group nve region cylinder3
105200 atoms in group nve
group langevin subtract cylinder3 cylinder2
33840 atoms in group langevin
group frozen subtract all cylinder3
86340 atoms in group frozen

region force cylinder x $(0.5*ly) $(0.5*lz) $(v_R-1) EDGE EDGE units box
region force cylinder x 24.012813670346833561 $(0.5*lz) $(v_R-1) EDGE EDGE units box
region force cylinder x 24.012813670346833561 24.012813670346833561 $(v_R-1) EDGE EDGE units box
region force cylinder x 24.012813670346833561 24.012813670346833561 11 EDGE EDGE units box
group gas type 2
17360 atoms in group gas

fix nve nve nve
fix langevin langevin langevin 0.50 0.50 1.0 12345 zero yes

variable gascount equal count(gas)

variable dP equal 0.001
variable force equal v_dP/v_rho

velocity all create 0.1 87287
velocity frozen set 0 0 0

compute chunk all chunk/atom bin/cylinder x lower $(lx) $(0.5*ly) $(0.5*lz) 0 $(v_R+3) 80 units box
compute chunk all chunk/atom bin/cylinder x lower 96.051254681387334244 $(0.5*ly) $(0.5*lz) 0 $(v_R+3) 80 units box
compute chunk all chunk/atom bin/cylinder x lower 96.051254681387334244 24.012813670346833561 $(0.5*lz) 0 $(v_R+3) 80 units box
compute chunk all chunk/atom bin/cylinder x lower 96.051254681387334244 24.012813670346833561 24.012813670346833561 0 $(v_R+3) 80 units box
compute chunk all chunk/atom bin/cylinder x lower 96.051254681387334244 24.012813670346833561 24.012813670346833561 0 15 80 units box

compute displacement all displace/atom
compute mean_displacement nve reduce ave c_displacement[4]

compute vmax all reduce max vx
variable volume equal count(gas)/v_V

thermo_style custom step time temp c_mean_displacement v_volume v_force c_vmax dt spcpu cpuremain
thermo 100

compute keAtom all ke/atom
dump dump all custom 1000 trajectory.bin id type x y z c_keAtom

fix flow gas addforce v_force 0.0 0.0
run 5000
No /omp style for force computation currently active
Per MPI rank memory allocation (min/avg/max) = 91.42 | 91.42 | 91.42 Mbytes
Step Time Temp c_mean_displacement v_volume v_force c_vmax Dt S/CPU CPULeft 
       0            0  0.054874295            0   0.39951613       0.0025   0.77485834        0.005            0            0 
     100          0.5  0.075139366  0.094561912   0.39951613       0.0025     2.257282        0.005    132.21617    37.060568 
     200            1   0.10760368   0.16555083   0.39951613       0.0025    3.0832651        0.005    133.09838    36.183889 
     300          1.5    0.1247086   0.23554914   0.39951613       0.0025     3.144338        0.005    131.16648    35.564132 
     400            2   0.13797402   0.29663935   0.39951613       0.0025    2.9134218        0.005    130.65045     34.90771 
     500          2.5   0.14707266   0.35136905   0.39951613       0.0025    3.0849969        0.005     132.6596    34.103359 
     600            3   0.15280819   0.39509978   0.39951613       0.0025    3.4400577        0.005    130.87757    33.391125 
     700          3.5   0.15890335    0.4232878   0.39951613       0.0025    3.3735764        0.005    131.09457    32.656307 
     800            4   0.16693843   0.43936173   0.39951613       0.0025    4.2235862        0.005     130.5935     31.92986 
     900          4.5   0.17404033   0.44522991   0.39951613       0.0025    3.7341078        0.005    130.96563    31.184769 
    1000            5   0.17874808   0.44591338   0.39951613       0.0025    3.4595148        0.005     127.2697     30.52468 
    1100          5.5   0.18252708   0.44653844   0.39951613       0.0025    3.2514046        0.005    127.93843    29.827186 
    1200            6   0.18541356   0.45288065   0.39951613       0.0025    3.6906785        0.005    129.95129    29.077331 
    1300          6.5   0.18924715    0.4652774   0.39951613       0.0025    3.1998988        0.005    126.88442     28.37739 
    1400            7   0.19203362   0.48280892   0.39951613       0.0025    3.4640053        0.005    127.80171    27.650304 
    1500          7.5   0.19529941   0.50118597   0.39951613       0.0025    3.5279117        0.005    130.29572    26.880889 
    1600            8    0.1988403   0.51953243   0.39951613       0.0025    3.6075552        0.005    130.13172     26.11377 
    1700          8.5   0.20341827   0.53781077   0.39951613       0.0025    3.6942266        0.005    127.98625    25.371501 
    1800            9   0.20669865   0.55612005   0.39951613       0.0025    3.6371457        0.005     129.6358    24.607216 
    1900          9.5    0.2114709   0.57469757   0.39951613       0.0025    3.7577933        0.005     130.3305    23.835474 
    2000           10   0.21519326   0.59511531   0.39951613       0.0025    3.8304677        0.005    128.01344    23.085011 
    2100         10.5   0.21754433   0.61784641   0.39951613       0.0025    3.4783276        0.005    127.87625     22.33278 
    2200           11   0.22097864    0.6398963   0.39951613       0.0025    3.7165914        0.005    130.30556    21.559287 
    2300         11.5   0.22240413   0.66013771   0.39951613       0.0025    3.3465968        0.005    129.34416    20.793018 
    2400           12   0.22440513   0.67725295   0.39951613       0.0025    3.4662771        0.005    129.46194    20.025416 
    2500         12.5   0.22592925   0.69149758   0.39951613       0.0025    3.5668968        0.005    129.52459    19.257053 
    2600           13   0.22728199   0.70234372   0.39951613       0.0025    3.9692422        0.005    130.05291    18.485512 
    2700         13.5    0.2301712   0.70964441   0.39951613       0.0025     3.499502        0.005    129.25822    17.718191 
    2800           14    0.2313966   0.71613067   0.39951613       0.0025    4.0333332        0.005    130.26432    16.945725 
    2900         14.5    0.2326031   0.72272583   0.39951613       0.0025    3.7719246        0.005    128.68687    16.180402 
    3000           15   0.23308449   0.73006453   0.39951613       0.0025    4.0911429        0.005    128.88126    15.413516 
    3100         15.5   0.23443324   0.73841223   0.39951613       0.0025    3.7493088        0.005    127.57967    14.650899 
    3200           16   0.23508485   0.74877345   0.39951613       0.0025    4.3088233        0.005    129.46641    13.880531 
    3300         16.5   0.23639034   0.76056197   0.39951613       0.0025    3.7093258        0.005    130.66689    13.106384 
    3400           17    0.2378326   0.77318957   0.39951613       0.0025     3.443378        0.005    129.48956    12.336032 
    3500         17.5   0.23916836   0.78599239   0.39951613       0.0025    3.9396418        0.005    130.41293    11.563226 
    3600           18   0.24125498   0.79830347   0.39951613       0.0025    3.6377902        0.005    130.45584    10.790657 
    3700         18.5   0.24236679   0.81064513   0.39951613       0.0025    3.6288735        0.005    129.56424    10.020267 
    3800           19   0.24405728   0.82273318   0.39951613       0.0025    3.1833238        0.005    128.78514    9.2512769 
    3900         19.5   0.24477873    0.8351298   0.39951613       0.0025    3.6262813        0.005    129.83624    8.4801288 
    4000           20   0.24706157   0.84720546   0.39951613       0.0025    3.6329497        0.005    127.70432    7.7122425 
    4100         20.5   0.24738965     0.860278   0.39951613       0.0025    4.9852689        0.005    128.85319    6.9420835 
    4200           21   0.24760087   0.87293517   0.39951613       0.0025    3.5798259        0.005    129.57328    6.1708211 
    4300         21.5   0.24875276   0.88420701   0.39951613       0.0025    4.1627733        0.005    127.74002    5.4013385 
    4400           22   0.24972226   0.89531654   0.39951613       0.0025     3.582707        0.005    130.47573    4.6290105 
    4500         22.5    0.2497986   0.90577796   0.39951613       0.0025     3.558611        0.005    128.57704    3.8582024 
    4600           23    0.2504385   0.91447166   0.39951613       0.0025    3.5349184        0.005    130.29111    3.0862029 
    4700         23.5    0.2510305   0.92361658   0.39951613       0.0025    3.6859569        0.005    129.18493    2.3148139 
    4800           24   0.25151604   0.93261355   0.39951613       0.0025    3.7365309        0.005    130.04408    1.5430995 
    4900         24.5   0.25238721   0.94114937   0.39951613       0.0025    4.2024686        0.005    129.37684   0.77157802 
    5000           25   0.25140037    0.9498006   0.39951613       0.0025    4.3187127        0.005    126.97203            0 
Loop time of 38.5949 on 4 procs for 5000 steps with 191540 atoms

Performance: 55965.922 tau/day, 129.551 timesteps/s
228.3% CPU use with 1 MPI tasks x 4 OpenMP threads

MPI task timing breakdown:
Section |  min time  |  avg time  |  max time  |%varavg| %total
---------------------------------------------------------------
Pair    | 16.868     | 16.868     | 16.868     |   0.0 | 43.71
Neigh   | 0.31508    | 0.31508    | 0.31508    |   0.0 |  0.82
Comm    | 4.2191     | 4.2191     | 4.2191     |   0.0 | 10.93
Output  | 0.16436    | 0.16436    | 0.16436    |   0.0 |  0.43
Modify  | 13.627     | 13.627     | 13.627     |   0.0 | 35.31
Other   |            | 3.4        |            |       |  8.81

Nlocal:    191540 ave 191540 max 191540 min
Histogram: 1 0 0 0 0 0 0 0 0 0
Nghost:    67902 ave 67902 max 67902 min
Histogram: 1 0 0 0 0 0 0 0 0 0
Neighs:    0 ave 0 max 0 min
Histogram: 1 0 0 0 0 0 0 0 0 0

Total # of neighbors = 0
Ave neighs/atom = 0
Neighbor list builds = 659
Dangerous builds = 0

reset_timestep 0
fix vx all ave/chunk 10 10000 100000 chunk vx ave running file velocity.txt

fix dt all dt/reset 10 NULL NULL 0.05 units box

run 100000
No /omp style for force computation currently active
Per MPI rank memory allocation (min/avg/max) = 101.4 | 101.4 | 101.4 Mbytes
Step Time Temp c_mean_displacement v_volume v_force c_vmax Dt S/CPU CPULeft 
       0           25   0.25140037    0.9498006   0.39951613       0.0025    4.3187127   0.01121644            0            0 
     100    26.075958   0.25311848   0.97021551   0.39951613       0.0025    3.5391177  0.010154866    107.90431    925.82129 
     200    27.146866   0.25412266   0.99185867   0.39951613       0.0025    3.6084292   0.01171667    109.29714    919.00084 
     300    28.282707   0.25608035    1.0145889   0.39951613       0.0025    4.2687121  0.010255034    106.65929    923.63746 
     400     29.37861   0.25786025    1.0365535   0.39951613       0.0025    3.9144956  0.011529387     109.8025    918.80402 
     500    30.499021   0.25772515    1.0611525   0.39951613       0.0025    3.5418466   0.01174355    107.79986    918.90657 
     600    31.571969   0.25870628    1.0822692   0.39951613       0.0025    3.5984242  0.010025606    107.24528    919.46046 
     700    32.684637   0.26013086    1.1013291   0.39951613       0.0025    3.6216844  0.011485744    109.12692    917.30887 
     800    33.821314   0.26099169    1.1217449   0.39951613       0.0025    3.5487874  0.010869242    107.76292    916.90437 
     900    34.938097   0.26103872    1.1427364   0.39951613       0.0025    3.6025144  0.011706824    108.39992     915.7831 
    1000    36.049398   0.26153236    1.1619471   0.39951613       0.0025    3.6558793  0.011461131    107.25793    915.67397 
    1100    37.134843   0.26237668    1.1805693   0.39951613       0.0025    4.1150689  0.010632148    105.05713    917.17119 
    1200    38.217444   0.26229053     1.200732   0.39951613       0.0025    3.7427883  0.011477816    107.79127    916.27235 
    1300    39.338513   0.26291908    1.2211996   0.39951613       0.0025    3.7146139  0.010588947    106.93642    915.93214 
    1400    40.433385   0.26308235    1.2426609   0.39951613       0.0025    3.7996697  0.010575926    106.86433    915.55136 
    1500    41.551702   0.26294919    1.2617857   0.39951613       0.0025    3.8928638  0.011142203    107.26081    914.86945 
    1600    42.657015   0.26450502    1.2799269   0.39951613       0.0025    3.6500855   0.01105887    107.31641    914.12653 
    1700    43.764098   0.26377178    1.2989477   0.39951613       0.0025    4.1343505  0.010807759    107.35835    913.34034 
    1800    44.834558   0.26366101    1.3176973   0.39951613       0.0025    4.0217015  0.011727261     108.7473    911.88897 
    1900    45.951601   0.26468865    1.3388843   0.39951613       0.0025    4.0915633  0.011015876    108.85076    910.44844 
    2000    47.033497   0.26615387    1.3596436   0.39951613       0.0025    3.8319568  0.011366489    107.19699    909.75458 
    2100    48.134867   0.26573959    1.3811306   0.39951613       0.0025    3.4477531  0.011513564    106.96262    909.13325 
    2200    49.181037   0.26712345    1.4007442   0.39951613       0.0025    4.0206407  0.011197283    108.14402    908.02935 
    2300    50.253931   0.26643336     1.420325   0.39951613       0.0025    3.8248002  0.010521433    108.26424    906.89749 
    2400    51.298647   0.26649736    1.4399555   0.39951613       0.0025    3.5662789  0.010666159    109.54389    905.34415 
    2500    52.384324   0.26630082     1.460229   0.39951613       0.0025    3.7840875  0.010589677    107.66256    904.46421 
    2600    53.465629   0.26757124    1.4807868   0.39951613       0.0025    4.0157353   0.01079392    109.33253    903.04901 
    2700    54.515737   0.26716888    1.5005093   0.39951613       0.0025      3.53641    0.0105017    109.94206     901.4881 
    2800    55.565926   0.26736064    1.5207242   0.39951613       0.0025    3.8870423  0.010624183    108.90257    900.27515 
    2900    56.634773   0.26757391    1.5406062   0.39951613       0.0025    4.3922838  0.011247951    107.94474    899.35534 
    3000    57.737944   0.26900873     1.561994   0.39951613       0.0025    3.9938104  0.011069749    108.58989    898.25712 
    3100    58.786765   0.26923386    1.5820026   0.39951613       0.0025    3.9942441  0.011502634    106.17435    897.82523 
    3200    59.885997   0.26957296     1.603507   0.39951613       0.0025    4.2431111  0.011104264    108.61008    896.72253 
    3300    60.926822   0.26920924    1.6239487   0.39951613       0.0025    4.0459624 0.0098122687    106.87105    896.06988 
    3400    61.917552   0.26944058    1.6416214   0.39951613       0.0025    4.0536082  0.010246212    108.41073    895.02301 
    3500    62.932791   0.26881721    1.6603848   0.39951613       0.0025    4.0318335  0.010555358    108.96141    893.85471 
    3600    63.983595   0.26929294    1.6795353   0.39951613       0.0025    3.8641686 0.0098840721    107.68423    892.99179 
    3700    65.033662   0.26929988    1.6990594   0.39951613       0.0025    4.0249742 0.0096491792      108.478    891.94851 
    3800    66.079333   0.26994495     1.717829   0.39951613       0.0025    3.8306392  0.011509121    109.77839    890.63512 
    3900    67.145472   0.27043967    1.7364628   0.39951613       0.0025    3.7069782  0.011585676    109.53708    889.39187 
    4000    68.178422   0.26912299    1.7556447   0.39951613       0.0025    4.3995778  0.010187387    108.72035    888.32972 
    4100    69.220709   0.26946668    1.7751208   0.39951613       0.0025    4.1366447  0.010680003    106.72323    887.67709 
    4200    70.291109   0.27008565     1.795621   0.39951613       0.0025    3.6317096  0.011055963    107.17724    886.92039 
    4300    71.341017   0.26957402    1.8146106   0.39951613       0.0025    3.8881227  0.011203435    107.03854    886.18238 
    4400       72.377   0.27032795    1.8350937   0.39951613       0.0025    4.1407562   0.01136256    107.19803    885.40529 
    4500    73.466547   0.27038238    1.8567763   0.39951613       0.0025    3.7098116  0.010032256     105.9432    884.85574 
    4600     74.51645   0.27035475     1.879195   0.39951613       0.0025    3.8833152  0.011161164    107.55638    883.99544 
    4700    75.570565   0.27134836      1.90032   0.39951613       0.0025    4.3522502  0.011150596    109.14384    882.85798 
    4800    76.592384   0.27010034    1.9206043   0.39951613       0.0025    3.8500544  0.011220635    108.43565    881.84843 
    4900    77.664386   0.27094994    1.9418865   0.39951613       0.0025    3.7631724  0.010159991    106.92911    881.09461 
    5000    78.673703    0.2723568    1.9619271   0.39951613       0.0025    4.0627745  0.010320788    106.87402     880.3427 
    5100    79.737799   0.27076355    1.9841315   0.39951613       0.0025    3.7486857  0.010149179    105.59037    879.79524 
    5200    80.794422   0.27056603    2.0067692   0.39951613       0.0025    4.3636788  0.010711175    106.04984    879.15761 
    5300    81.861102   0.27000777    2.0302145   0.39951613       0.0025    3.7901092  0.011502922    106.63074    878.41667 
    5400    82.921571   0.27166065    2.0539983   0.39951613       0.0025    3.9713443  0.010396022    106.91183    877.62524 
    5500    83.954896   0.27087682     2.076675   0.39951613       0.0025    3.9104803  0.010466192    105.92447    876.97838 
    5600    85.019359    0.2716485    2.1005896   0.39951613       0.0025     3.912355  0.010473911    107.27899       876.12 
    5700    86.083916   0.27259888    2.1246922   0.39951613       0.0025    4.4908759  0.010229182    106.27895    875.40409 
    5800    87.119697   0.27139397    2.1482519   0.39951613       0.0025    3.7072096  0.010677412    107.09402    874.56414 
    5900    88.199074   0.27205987    2.1729831   0.39951613       0.0025    3.8435392  0.011269806    109.58135    873.38296 
    6000    89.271653   0.27236897    2.1973018   0.39951613       0.0025    3.8138038  0.011148206    106.54257    872.61851 
    6100    90.344053   0.27142057    2.2220843   0.39951613       0.0025    4.2730318 0.0098754129    104.74845    872.09582 
    6200    91.368594   0.27273067    2.2454961   0.39951613       0.0025    3.8473242 0.0099653447    107.16196     871.2339 
    6300    92.426578   0.27290073    2.2695993   0.39951613       0.0025     4.076345  0.009956385    105.71082    870.56023 
    6400    93.429652   0.27184502    2.2926561   0.39951613       0.0025    4.0349829  0.010098629     108.6999    869.49764 
    6500    94.465664   0.27276182    2.3151699   0.39951613       0.0025    3.9173204  0.011141996    108.99729     868.4033 
    6600     95.52386   0.27209655    2.3390108   0.39951613       0.0025    4.2668507  0.010610995    108.06221     867.4267 
    6700    96.598162   0.27164752    2.3637421   0.39951613       0.0025    4.0928915  0.010133005    105.05724    866.82021 
    6800    97.636817   0.27319594    2.3879096   0.39951613       0.0025    4.4553347  0.009954458    107.45883    865.91198 
    6900    98.704624   0.27256243    2.4137599   0.39951613       0.0025    3.6067437  0.011082054    107.62756    864.98344 
    7000    99.760385    0.2732094    2.4385487   0.39951613       0.0025    3.6983267  0.010283829    106.76381    864.15474 
    7100    100.81142   0.27303336    2.4635669   0.39951613       0.0025    3.7839035  0.010075392    104.64564    863.57107 
    7200    101.85051   0.27319858    2.4882387   0.39951613       0.0025    4.3041999 0.0097216994    110.04562    862.37267 
    7300    102.85846   0.27310706    2.5126972   0.39951613       0.0025    4.3278356  0.010071113    107.84521    861.41766 
    7400    103.89376   0.27273573    2.5379494   0.39951613       0.0025    3.8300685  0.011038415     106.7833     860.5788 
    7500    104.94404   0.27214333    2.5630314   0.39951613       0.0025    3.9766901  0.010863954    108.35749    859.56953 
    7600    105.98877   0.27249782    2.5883755   0.39951613       0.0025    3.9368815  0.010956136    108.24879     858.5738 
    7700     107.0293   0.27218525    2.6143642   0.39951613       0.0025    4.2960514  0.010535145     107.3361    857.67411 
    7800    108.07383   0.27267644    2.6401447   0.39951613       0.0025    3.8597402  0.010936758    107.83367    856.72278 
    7900    109.13534   0.27254692      2.66634   0.39951613       0.0025    4.0877257   0.01030655     107.4764      855.808 
    8000    110.16092   0.27234099    2.6905855   0.39951613       0.0025    4.0776336 0.0097112744    105.79793    855.06257 
    8100    111.18887   0.27271331    2.7172086   0.39951613       0.0025    3.7884907  0.010410638    106.37426     854.2541 
    8200    112.26327   0.27415992    2.7447231   0.39951613       0.0025    3.9788536 0.0096354337    109.59444    853.13321 
    8300    113.31143   0.27327876    2.7723589   0.39951613       0.0025    3.9250066   0.01095252    105.49091    852.40948 
    8400    114.37632   0.27417841    2.8009776   0.39951613       0.0025    3.7825119  0.011023881    106.44572    851.58769 
    8500    115.44309     0.272212    2.8281927   0.39951613       0.0025    3.9654673  0.010995128    108.07772    850.61042 
    8600    116.51332   0.27297784    2.8554883   0.39951613       0.0025    4.2674997   0.01070266    108.02344     849.6393 
    8700    117.53535   0.27459341    2.8818343   0.39951613       0.0025    4.2540279 0.0096514893    107.91691    848.67882 
    8800    118.57451    0.2732988    2.9101485   0.39951613       0.0025    4.2213658  0.010622339    108.23622    847.69076 
    8900    119.64507   0.27300529    2.9381918   0.39951613       0.0025    4.1322283  0.011085771    109.03996    846.63445 
    9000    120.67703   0.27300531    2.9649669   0.39951613       0.0025    4.7206838 0.0099180949     108.1109    845.66092 
    9100    121.74299   0.27312307    2.9916363   0.39951613       0.0025    4.1093682  0.011474324    109.95705    844.53332 
    9200    122.80294   0.27246075    3.0207839   0.39951613       0.0025    3.9444921   0.01049166    108.27106    843.55024 
    9300    123.86092   0.27212161    3.0491034   0.39951613       0.0025     3.841873  0.011586739    108.16237    842.57748 
    9400    124.93574   0.27334993    3.0768174   0.39951613       0.0025    3.8072387  0.010700773    108.77934    841.55521 
    9500    125.98856   0.27394031    3.1052582   0.39951613       0.0025    4.4383888  0.010672853    108.26556    840.57668 
    9600    127.00218   0.27431941     3.131898   0.39951613       0.0025    4.4715777  0.010465742    109.87925    839.47155 
    9700     128.0343   0.27320718    3.1597805   0.39951613       0.0025     4.129477  0.010356805    110.54681    838.31927 
    9800     129.1188   0.27304694    3.1887088   0.39951613       0.0025    4.0068669  0.010104711     108.3372    837.34187 
    9900    130.15926   0.27485846    3.2173394   0.39951613       0.0025    3.7611747  0.010651345    109.25142    836.29527 
   10000    131.20398   0.27413505     3.246467   0.39951613       0.0025    4.8478042 0.0098936217    109.35008    835.24386 
   10100    132.20859   0.27370358    3.2741113   0.39951613       0.0025    4.3079899  0.010286076    109.06636    834.21633 
   10200     133.2534   0.27298562    3.3033022   0.39951613       0.0025     3.833654  0.010066301    107.57916    833.30256 
   10300    134.27794   0.27302407    3.3304259   0.39951613       0.0025    4.3701529 0.0096331842    108.97792    832.28459 
   10400    135.29556   0.27415704     3.358037   0.39951613       0.0025    4.3795276  0.010589691    108.16002    831.32833 
   10500    136.33115   0.27309432    3.3867972   0.39951613       0.0025    4.5333183  0.010189723    109.55819     830.2721 
   10600    137.35463   0.27374901    3.4146988   0.39951613       0.0025    3.7267958  0.010323133    109.60263    829.21546 
   10700    138.34304   0.27343815     3.442141   0.39951613       0.0025    4.6068858  0.010446754    109.76851    828.14999 
   10800    139.37508    0.2737471    3.4721623   0.39951613       0.0025    4.0122012  0.011394701    108.99788    827.14059 
   10900    140.45262   0.27488174     3.503804   0.39951613       0.0025    3.9900742  0.010893906    109.10719    826.12537 
   11000    141.50042   0.27433793    3.5345469   0.39951613       0.0025    4.1816377 0.0095935461     107.7844    825.20294 
   11100    142.56191   0.27510805     3.566124   0.39951613       0.0025    4.1471378  0.010839813    107.29118    824.31459 
   11200    143.61717   0.27443889    3.5983344   0.39951613       0.0025    3.8039951  0.010799799    108.30235    823.35645 
   11300    144.62501   0.27403563    3.6285269   0.39951613       0.0025    4.2621551  0.009569713    106.47677     822.5232 
   11400     145.5908   0.27417395    3.6571566   0.39951613       0.0025    3.8507415  0.010039637    106.39352     821.6938 
   11500    146.61528   0.27486839    3.6880232   0.39951613       0.0025    4.1393306   0.01030193    107.96583    820.75714 
   11600    147.65933    0.2744921    3.7184588   0.39951613       0.0025    4.0877025 0.0098400496    109.02925    819.75182 
   11700    148.67875   0.27568571    3.7478508   0.39951613       0.0025    4.1522824 0.0098136462    108.51353     818.7809 
   11800    149.67761   0.27334195    3.7771961   0.39951613       0.0025    3.7570036  0.010788359    107.78684    817.85725 
   11900    150.72346   0.27431252    3.8054981   0.39951613       0.0025     3.981524 0.0099974553     109.3164    816.83744 
   12000    151.76204   0.27370854    3.8355319   0.39951613       0.0025    4.4798624  0.010656856    107.73225    815.91801 
   12100    152.80478   0.27390325    3.8655417   0.39951613       0.0025    4.8689201 0.0098796736    110.15327    814.85024 
   12200     153.8911   0.27404176    3.8973468   0.39951613       0.0025    3.6435327  0.010981956    108.88809      813.861 
   12300    154.95041     0.274299    3.9285091   0.39951613       0.0025    4.9057678  0.010019339    109.66381    812.82659 
   12400    155.98796   0.27440006    3.9583276   0.39951613       0.0025    4.2624304   0.01037659    110.03193    811.77261 
   12500    157.01575   0.27409844    3.9874102   0.39951613       0.0025    3.7389577 0.0098047719    109.08517    810.77617 
   12600     158.0619   0.27503311    4.0173139   0.39951613       0.0025    4.1937881  0.011336592    107.77823     809.8581 
   12700    159.08578   0.27431616    4.0469009   0.39951613       0.0025    3.8169946  0.011230022    107.95757    808.92927 
   12800    160.11324   0.27473424    4.0770492   0.39951613       0.0025    3.4998728 0.0097074915    108.74837    807.95461 
   12900    161.13774   0.27477979    4.1072504   0.39951613       0.0025    3.7902492  0.010300266    107.95135    807.02664 
   13000    162.15194   0.27419984    4.1361986   0.39951613       0.0025    4.3469719  0.010677751    106.65791    806.17387 
   13100    163.18633   0.27391593    4.1672167   0.39951613       0.0025    3.7582877  0.011156501    106.17639    805.34801 
   13200    164.22683   0.27500565    4.1985775   0.39951613       0.0025    4.4018561  0.010675461    108.10402    804.40997 
   13300    165.25312   0.27494908    4.2293633   0.39951613       0.0025    4.0337875 0.0099059541    109.06103     803.4192 
   13400     166.2787   0.27483208    4.2598252   0.39951613       0.0025    3.9532335  0.011331536     109.1976    802.42213 
   13500    167.32348   0.27424691    4.2923589   0.39951613       0.0025    4.5452072 0.0098338651    107.92213     801.4956 
   13600    168.33624   0.27366167    4.3242038   0.39951613       0.0025    4.0338088  0.010310501    108.88193    800.51719 
   13700    169.37472   0.27439704    4.3575702   0.39951613       0.0025    3.6745902  0.010410827    107.64286    799.60624 
   13800     170.3797   0.27537139    4.3895418   0.39951613       0.0025    3.8418157  0.010072102    107.82042    798.68548 
   13900    171.38913    0.2744967    4.4213244   0.39951613       0.0025    4.8037971  0.010334296    108.52532    797.72731 
   14000    172.44724   0.27496454    4.4543643   0.39951613       0.0025    4.1073205  0.010347885    106.64277    796.86958 
   14100    173.47342   0.27526266    4.4863307   0.39951613       0.0025     3.995309  0.010376478    108.52249    795.91177 
   14200    174.53737   0.27493345    4.5196931   0.39951613       0.0025    4.1816837  0.010697739    108.79652    794.94044 
   14300    175.53629   0.27463785    4.5504002   0.39951613       0.0025    4.6050451  0.010405502    108.19068     794.0007 
   14400    176.59218   0.27454723    4.5827197   0.39951613       0.0025    4.4246537 0.0097392842     108.5708    793.04192 
   14500    177.62181   0.27496103     4.615027   0.39951613       0.0025    4.0478621  0.010626689    109.03044    792.06077 
   14600    178.64376   0.27436891     4.646933   0.39951613       0.0025    3.9468421 0.0093087236     108.0997     791.1267 
   14700    179.60243    0.2749747    4.6771226   0.39951613       0.0025    3.9361526  0.010052787    109.57992    790.12024 
   14800    180.59845   0.27521636    4.7086759   0.39951613       0.0025    4.1983526  0.010726829    107.11787    789.23579 
   14900      181.663    0.2739552    4.7423718   0.39951613       0.0025    3.9839275  0.010783895    108.94361    788.26133 
   15000    182.70341   0.27368008    4.7745745   0.39951613       0.0025    3.7224992  0.010774363     108.2707    787.31994 
   15100    183.72935   0.27522166    4.8053707   0.39951613       0.0025    4.2440494  0.010293149    108.02834    786.39044 
   15200    184.76127   0.27457413    4.8371511   0.39951613       0.0025    3.8641448  0.011051915    108.83678    785.42264 
   15300    185.77356   0.27425399    4.8680126   0.39951613       0.0025    3.8252878 0.0095574271    107.37528     784.5247 
   15400    186.78205   0.27477582    4.8997652   0.39951613       0.0025    4.2083984  0.010353767    109.01417    783.54942 
   15500    187.77542   0.27468799    4.9295737   0.39951613       0.0025    4.0326199  0.010702304    109.84302    782.53715 
   15600    188.77677   0.27403704    4.9603253   0.39951613       0.0025     4.761376  0.010335809    109.12922    781.55841 
   15700    189.80458   0.27394721    4.9928901   0.39951613       0.0025    4.2156095 0.0098060539    109.75417    780.55244 
   15800      190.803   0.27446988    5.0245735   0.39951613       0.0025     4.149705  0.010447566    109.87502    779.54233 
   15900    191.82988      0.27397    5.0562446   0.39951613       0.0025     4.371653  0.010170904    108.48529    778.59515 
   16000    192.86333    0.2741893    5.0881036   0.39951613       0.0025    4.1085328  0.010177689     109.4637    777.60503 
   16100    193.91239   0.27312152    5.1195311   0.39951613       0.0025    3.9074415  0.010486154    107.45016    776.70507 
   16200    194.94346   0.27390309    5.1506328   0.39951613       0.0025    4.3558325  0.010951936    109.51486    775.71397 
   16300     195.9717    0.2748438    5.1822933   0.39951613       0.0025    4.6112315 0.0099936651    108.08872     774.7857 
   16400    196.98011   0.27513619    5.2135492   0.39951613       0.0025    4.1061283  0.010204792     109.0377    773.81641 
   16500    198.04208   0.27463396    5.2464381   0.39951613       0.0025    4.6264255  0.010417942      109.182    772.84163 
   16600    199.04674   0.27451983    5.2775773   0.39951613       0.0025    4.0147277  0.010282852    108.99729    771.87535 
   16700     200.0928   0.27405393    5.3095062   0.39951613       0.0025    4.0606127  0.010353359    107.50885    770.97302 
   16800    201.11781   0.27407723    5.3405453   0.39951613       0.0025    3.8020854  0.010459732     108.2783    770.03761 
   16900    202.14317   0.27453922    5.3714993   0.39951613       0.0025    3.7526379  0.010867129    109.06029    769.06979 
   17000    203.20316   0.27424119    5.4032171   0.39951613       0.0025    4.1488414  0.010907257    107.13209    768.18314 
   17100    204.26416   0.27420937    5.4360872   0.39951613       0.0025    4.6479749  0.010449886    107.05619    767.29914 
   17200    205.30528   0.27432244    5.4675834   0.39951613       0.0025    3.9688077  0.010471179    107.69294    766.38799 
   17300    206.35368   0.27533761    5.4994605   0.39951613       0.0025    4.6648593  0.009880087    108.26435     765.4532 
   17400    207.38733   0.27385661    5.5317183   0.39951613       0.0025    4.7111161 0.0099582253    109.13291    764.48364 
   17500    208.39894    0.2745331     5.562785   0.39951613       0.0025    4.1461626  0.010994154    108.92084    763.52311 
   17600    209.41654   0.27383494     5.593973   0.39951613       0.0025    4.3254199  0.010471185    107.74921    762.60979 
   17700    210.40455    0.2751138    5.6245708   0.39951613       0.0025    3.8720482 0.0097117032    106.56766    761.74415 
   17800    211.46836   0.27533889    5.6576929   0.39951613       0.0025    3.7656815  0.010260174    107.31569    760.84749 
   17900    212.49198     0.274171    5.6878861   0.39951613       0.0025    4.2431156  0.010444899    109.11576    759.87993 
   18000    213.47949   0.27487065    5.7158944   0.39951613       0.0025    4.1227757  0.009796347    106.61913     759.0107 
   18100    214.48439   0.27560927      5.74477   0.39951613       0.0025    4.3093591  0.010723333    107.15654    758.11943 
   18200    215.46748    0.2756093    5.7739799   0.39951613       0.0025    4.2054443  0.010684697    108.96025    757.15826 
   18300    216.50181   0.27460773    5.8049139   0.39951613       0.0025    3.9513829   0.01106046    109.66283    756.17132 
   18400    217.57104   0.27542671    5.8380089   0.39951613       0.0025    3.7931665  0.010436255    108.32662    755.23507 
   18500    218.61558   0.27523046    5.8701063   0.39951613       0.0025    3.7874505  0.010274368    107.98378    754.31188 
   18600    219.61242    0.2752643    5.9007097   0.39951613       0.0025    4.4612303  0.010508737    110.07178    753.31178 
   18700    220.62647   0.27494954     5.932313   0.39951613       0.0025    4.1099478 0.0095484829    109.65142    752.32781 
   18800     221.6659   0.27564623    5.9645259   0.39951613       0.0025    3.8595667 0.0096240387    108.39813    751.39013 
   18900    222.69976   0.27344391    5.9968862   0.39951613       0.0025    3.7928126   0.01019824    106.57787    750.52023 
   19000    223.72829   0.27346671     6.028264   0.39951613       0.0025    4.1729113  0.010005555    106.80236     749.6412 
   19100    224.74802   0.27423974    6.0594903   0.39951613       0.0025    3.8772026  0.010711355    107.73017    748.72742 
   19200    225.81084   0.27529131    6.0914408   0.39951613       0.0025    4.0991896 0.0099901145    107.80834    747.81065 
   19300    226.83951   0.27392055    6.1226436   0.39951613       0.0025     3.679987  0.010251814    105.52943    746.97753 
   19400    227.89686   0.27471114    6.1548864   0.39951613       0.0025    3.9619488   0.01046414    108.40073    746.03894 
   19500    228.94401   0.27455839    6.1870452   0.39951613       0.0025    3.9396555  0.011038343    109.06696    745.07727 
   19600    229.99795   0.27468122    6.2194986   0.39951613       0.0025     4.004778  0.011017125    107.33472    744.17674 
   19700    231.00881   0.27484563    6.2514047   0.39951613       0.0025    4.1115656  0.010235456     107.2692    743.27821 
   19800    232.03143   0.27520272    6.2824689   0.39951613       0.0025    4.2398892  0.010679981    107.96035    742.35518 
   19900    233.07188   0.27468821    6.3146687   0.39951613       0.0025    4.0354999 0.0095547772    108.02753    741.42979 
   20000    234.08363   0.27435828    6.3461967   0.39951613       0.0025     4.392259  0.010775017    107.21124    740.53259 
   20100    235.11757   0.27491636     6.378918   0.39951613       0.0025    3.9606831  0.010701116    108.23446    739.59999 
   20200    236.14366   0.27611858    6.4110707   0.39951613       0.0025    3.8576425 0.0096590124    108.34039     738.6639 
   20300    237.17511   0.27538776    6.4431494   0.39951613       0.0025    4.1318388   0.01091697    109.34327     737.6947 
   20400    238.18513   0.27441899    6.4750496   0.39951613       0.0025    4.1051883  0.010703245    109.32688    736.72658 
   20500     239.2152     0.274156    6.5072028   0.39951613       0.0025    3.8669192  0.010588018    109.55794    735.75149 
   20600    240.23124   0.27428635    6.5390961   0.39951613       0.0025    4.4830325  0.010750566    108.24644    734.81964 
   20700    241.28395   0.27381594    6.5733171   0.39951613       0.0025    4.1843736  0.010738496    108.01958    733.89529 
   20800    242.33321   0.27499982    6.6065468   0.39951613       0.0025    4.3958728  0.010585396    107.72995    732.98041 
   20900    243.36323   0.27474025    6.6408857   0.39951613       0.0025     4.178799  0.010274438    108.15207    732.05169 
   21000    244.39674   0.27459232    6.6749527   0.39951613       0.0025    4.2881832  0.010159354    107.59757    731.14093 
   21100    245.38035    0.2740196    6.7079668   0.39951613       0.0025     4.132845 0.0097372046    107.64007    730.22863 
   21200    246.37258   0.27528967    6.7403805   0.39951613       0.0025    4.3102798 0.0092964206    108.36234    729.29315 
   21300    247.38409   0.27467197    6.7745895   0.39951613       0.0025    3.9087881  0.010387349    109.44225    728.32414 
   21400    248.38596    0.2754147    6.8087298   0.39951613       0.0025    4.2282306 0.0093532206     108.8843    727.37285 
   21500    249.41295   0.27501077      6.84333   0.39951613       0.0025    3.8845589  0.010940257    110.12317    726.38414 
   21600    250.41969   0.27540189    6.8765359   0.39951613       0.0025    4.1559307  0.010182073    107.57814    725.47415 
   21700    251.43482   0.27555842    6.9091881   0.39951613       0.0025    4.5257067 0.0098424571    109.31494    724.51069 
   21800    252.46461   0.27519599     6.943946   0.39951613       0.0025    4.6948185 0.0099648165    109.67809    723.53682 
   21900    253.50261   0.27613549    6.9782637   0.39951613       0.0025    4.2602418  0.011108308    107.71069     722.6229 
   22000     254.5489   0.27578968    7.0129132   0.39951613       0.0025    4.3613556 0.0096575323    106.75515    721.73831 
   22100    255.58403   0.27639288    7.0473957   0.39951613       0.0025    4.8820156 0.0096994853    108.36973    720.80405 
   22200    256.61286   0.27558421    7.0813056   0.39951613       0.0025    4.5166286  0.010832319    109.09002    719.84855 
   22300    257.64047   0.27591448     7.115834   0.39951613       0.0025    4.2198589  0.010429585    107.79928    718.93164 
   22400    258.66412   0.27548238    7.1486657   0.39951613       0.0025    3.6779851  0.011055067    106.21078     718.0627 
   22500    259.70601   0.27576518    7.1833214   0.39951613       0.0025    3.9931711  0.010107374    108.95561    717.11141 
   22600    260.73781   0.27656372    7.2165749   0.39951613       0.0025    4.2729862   0.01037475    107.61135    716.19968 
   22700    261.77751   0.27679592    7.2501391   0.39951613       0.0025    4.2289672  0.010289196    102.92089    715.43202 
   22800    262.80389   0.27522298    7.2841292   0.39951613       0.0025    4.1422175  0.010300955    103.76716    714.63573 
   22900    263.85016   0.27500916    7.3188879   0.39951613       0.0025    4.4523736   0.01075596    103.58948    713.84354 
   23000    264.87137   0.27454331    7.3524472   0.39951613       0.0025    3.9819615   0.01055896    103.38473    713.05626 
   23100    265.92015   0.27520431    7.3862768   0.39951613       0.0025    4.7113912  0.010292256    103.60717     712.2605 
   23200    266.95948   0.27467257     7.421007   0.39951613       0.0025    3.9577988 0.0099602516    103.05413    711.48043 
   23300    267.96142   0.27441049    7.4538731   0.39951613       0.0025    4.1891119  0.010052886    103.18246    710.69475 
   23400    268.95909   0.27521403    7.4870804   0.39951613       0.0025    4.0318423 0.0099709077     103.2549    709.90527 
   23500    269.99731   0.27502457    7.5239164   0.39951613       0.0025    3.7802913 0.0099226071    103.82403    709.09699 
   23600    271.00944   0.27542299    7.5589736   0.39951613       0.0025    4.4039814  0.010536099    103.10416    708.30917 
   23700    272.03872   0.27547636    7.5928507   0.39951613       0.0025    4.5784691 0.0094001877    102.56474    707.53624 
   23800    273.02346   0.27517429    7.6252685   0.39951613       0.0025    4.1301773 0.0096330634    103.52825    706.73255 
   23900    274.04105   0.27611394    7.6590676   0.39951613       0.0025    4.1994087  0.010599677     106.3306    705.84645 
   24000      275.058   0.27629215    7.6930159   0.39951613       0.0025    4.1913958  0.010735219    107.24632    704.93447 
   24100    276.11541   0.27442444    7.7278544   0.39951613       0.0025    4.1793918  0.010064042    106.66471    704.03833 
   24200    277.14037   0.27463236    7.7605964   0.39951613       0.0025    4.4339725  0.010176733    107.61565    703.11589 
   24300    278.17527   0.27552877    7.7938641   0.39951613       0.0025    3.8496191  0.010389578    109.43745    702.14522 
   24400    279.21413   0.27492813    7.8268139   0.39951613       0.0025    3.7900382  0.010452888    108.33401    701.20385 
   24500    280.22868   0.27463712    7.8599674   0.39951613       0.0025     4.251769  0.010379066     109.0848    700.24305 
   24600    281.25853   0.27557204    7.8936749   0.39951613       0.0025    3.7074428  0.010885669    108.63911    699.29413 
   24700    282.28617   0.27517425    7.9267947   0.39951613       0.0025    3.6970553   0.01063402    108.37407    698.35231 
   24800    283.35499   0.27494946    7.9623143   0.39951613       0.0025    4.1440977   0.01090809    108.27243    697.41327 
   24900    284.42076   0.27560247    7.9975737   0.39951613       0.0025    4.0897473 0.0090677164    107.27255    696.50031 
   25000    285.43709   0.27526981     8.031065   0.39951613       0.0025    4.2005929 0.0099422051    106.76631    695.60047 
   25100    286.45492   0.27555037    8.0646247   0.39951613       0.0025    3.9522688  0.010353797    107.54562    694.68007 
   25200     287.5235   0.27449905    8.0991836   0.39951613       0.0025      3.95973  0.010332077    108.15534    693.74405 
   25300    288.57107   0.27497622    8.1337448   0.39951613       0.0025    3.9645417  0.010375806    108.98695    692.78728 
   25400       289.62   0.27498416    8.1682108   0.39951613       0.0025    4.1539896 0.0094757023    107.44267    691.86955 
   25500    290.65061   0.27589642    8.2019846   0.39951613       0.0025    4.0948912  0.010268962    106.97097    690.96372 
   25600    291.68876   0.27523366    8.2359067   0.39951613       0.0025     3.964592  0.010290937    107.28775    690.04963 
   25700     292.6986   0.27524322    8.2677638   0.39951613       0.0025    3.9466366 0.0099376125    108.21631    689.11228 
   25800    293.72511   0.27588517    8.2997911   0.39951613       0.0025    4.3066039 0.0097315008    108.02088    688.17985 
   25900    294.75086   0.27522523    8.3328096   0.39951613       0.0025    4.3735976  0.010921987    109.54978     687.2105 
   26000    295.78271   0.27551876     8.365845   0.39951613       0.0025    4.0618065  0.010349713    106.49377    686.31614 
   26100    296.80449     0.276544    8.3996116   0.39951613       0.0025    4.4110066 0.0099599575    106.46871    685.42206 
   26200    297.81172   0.27522582     8.432487   0.39951613       0.0025    4.1523397  0.010099869    107.51047    684.50201 
   26300    298.83261   0.27586636    8.4653567   0.39951613       0.0025     4.616846  0.010085658    107.89814    683.57251 
   26400    299.88275   0.27546983    8.4999758   0.39951613       0.0025    4.2206232  0.010731851    106.61924    682.67403 
   26500    300.95084   0.27558637    8.5346565   0.39951613       0.0025    3.6732509 0.0099577523    107.43805    681.75542 
   26600    301.95907   0.27586045    8.5681021   0.39951613       0.0025    4.3354022  0.010469916    108.19219    680.81882 
   26700    302.99934   0.27517265    8.6017372   0.39951613       0.0025    3.7132645  0.010688908    106.34249    679.92644 
   26800    304.04454   0.27513168    8.6370957   0.39951613       0.0025    3.9794706  0.010315352     106.4233    679.03176 
   26900    305.08151   0.27533309    8.6723927   0.39951613       0.0025    4.2345499  0.010543088    106.73713    678.12924 
   27000    306.12192   0.27450784    8.7067184   0.39951613       0.0025    4.4838572 0.0099151238    104.62823    677.27752 
   27100    307.16482   0.27535259    8.7410673   0.39951613       0.0025     4.004633  0.010554649    106.57958    676.37795 
   27200    308.19831   0.27450579    8.7759121   0.39951613       0.0025    3.8198233 0.0099389696    107.01448     675.4679 
   27300    309.22187   0.27477587    8.8095996   0.39951613       0.0025    4.2498174  0.010862767    109.85571    674.49331 
   27400     310.2433   0.27470535    8.8433483   0.39951613       0.0025    4.2885839  0.010250927    108.71787    673.54443 
   27500    311.28578   0.27510047    8.8771863   0.39951613       0.0025    4.1716263  0.010259489    107.79859    672.61644 
   27600    312.27883   0.27495493    8.9096558   0.39951613       0.0025    4.5658215  0.010563157    107.86754     671.6869 
   27700    313.29887   0.27545323    8.9437008   0.39951613       0.0025    3.7011834  0.010623185    107.38323    670.76829 
   27800    314.29731   0.27603918     8.978062   0.39951613       0.0025    4.4298361  0.010824845    108.32548    669.82856 
   27900     315.3025   0.27568617    9.0123835   0.39951613       0.0025     4.058366  0.010828064    106.72836    668.92464 
   28000    316.35432   0.27603106    9.0479313   0.39951613       0.0025    4.1893865  0.010183168    105.62071    668.04575 
   28100    317.36526   0.27610844    9.0814467   0.39951613       0.0025    3.9399667  0.010847185    107.70419    667.11951 
   28200    318.39601   0.27605815    9.1164468   0.39951613       0.0025    3.9724788 0.0097363597    107.62778    666.19494 
   28300    319.41176   0.27633473    9.1495531   0.39951613       0.0025    4.3031561  0.010406039    106.83898    665.28771 
   28400    320.45421   0.27617661    9.1834094   0.39951613       0.0025    3.8177347   0.01028678    106.48539    664.38812 
   28500    321.49168   0.27564371    9.2188457   0.39951613       0.0025    3.9009169 0.0091542217    107.86393    663.45814 
   28600    322.52473   0.27563687    9.2537246   0.39951613       0.0025    4.3581994   0.01072739    107.75666    662.53049 
   28700    323.55488   0.27470244     9.287942   0.39951613       0.0025    4.4195116  0.010406045    108.17266    661.59396 
   28800    324.55162   0.27597639    9.3209414   0.39951613       0.0025    3.9008191  0.010464245    106.26134    660.69863 
   28900    325.58932   0.27556581    9.3557017   0.39951613       0.0025    5.4729233  0.009110338     108.1716     659.7621 
   29000    326.54193   0.27516421     9.388138   0.39951613       0.0025    4.9310531 0.0094669507    106.84652    658.85371 
   29100    327.56099   0.27564188    9.4217875   0.39951613       0.0025     4.499712  0.010286575    106.82312    657.94564 
   29200     328.5893   0.27616047    9.4557431   0.39951613       0.0025    4.7164466  0.010143939    108.88512    656.99439 
   29300    329.63266   0.27618488    9.4893327   0.39951613       0.0025     3.844188  0.010261365    107.74445    656.06683 
   29400    330.61145   0.27609695    9.5213526   0.39951613       0.0025    4.1226074  0.010434726    108.90981    655.11541 
   29500    331.60879   0.27505004    9.5534666   0.39951613       0.0025    4.7643828   0.01014697    108.57811    654.17093 
   29600    332.64769   0.27539639    9.5881756   0.39951613       0.0025    3.8669339 0.0092641006    106.91905    653.26059 
   29700    333.67127   0.27496333    9.6216305   0.39951613       0.0025    4.1744873  0.010259193    108.04818    652.32695 
   29800    334.71034   0.27485215    9.6563809   0.39951613       0.0025    4.0448182  0.010191177    106.54709    651.42408 
   29900    335.77403   0.27546071    9.6915718   0.39951613       0.0025    4.7729775  0.010097118    107.00773     650.5115 
   30000     336.8107   0.27505294    9.7261448   0.39951613       0.0025    4.3795328  0.010287008    104.92717    649.64201 
   30100    337.84019   0.27505534    9.7609692   0.39951613       0.0025    4.2718658 0.0094962624    106.90535    648.73101 
   30200    338.85279   0.27527656    9.7940717   0.39951613       0.0025    3.9548392  0.011012523    107.53936     647.8071 
   30300    339.87469   0.27583197    9.8280202   0.39951613       0.0025    4.3058951 0.0099183881    108.74507    646.85944 
   30400    340.90739   0.27577831    9.8624486   0.39951613       0.0025    4.0143626 0.0099069714     107.7707      645.931 
   30500     341.9141    0.2756265    9.8956826   0.39951613       0.0025    4.6894556 0.0097446243    107.71717    645.00361 
   30600     342.9446   0.27617699    9.9298285   0.39951613       0.0025    3.9623031   0.01028107    108.21036    644.06662 
   30700    343.98436   0.27508738     9.964428   0.39951613       0.0025    4.1138281  0.010671941    106.77121    643.15783 
   30800    345.00944   0.27461639     9.998953   0.39951613       0.0025    3.9184844  0.010302508    107.36525    642.23722 
   30900     346.0445   0.27503105    10.033132   0.39951613       0.0025    4.1204843   0.01041365    106.93279    641.32496 
   31000    347.10304   0.27536896    10.067765   0.39951613       0.0025    4.0748688  0.010459868    106.49174    640.42117 
   31100    348.12113   0.27519187    10.101259   0.39951613       0.0025    4.7784753 0.0099226426    108.42845       639.48 
   31200    349.16438   0.27598922     10.13602   0.39951613       0.0025    3.7630767  0.010735985    107.52665      638.556 
   31300    350.17166   0.27607738    10.168882   0.39951613       0.0025    4.1970933 0.0090406555    107.56967    637.63115 
   31400    351.20012   0.27685637    10.202824   0.39951613       0.0025    4.2883629  0.010820274    109.57477    636.66911 
   31500    352.24149   0.27633543    10.237793   0.39951613       0.0025    3.8323332 0.0095867244    108.19582    635.73267 
   31600    353.24378   0.27477915    10.270765   0.39951613       0.0025    3.8371703  0.010175531    109.63938    634.76997 
   31700    354.27602    0.2755519    10.305232   0.39951613       0.0025    4.4211881  0.011007815    107.47166    633.84723 
   31800    355.31731   0.27540754    10.339744   0.39951613       0.0025    3.8938721  0.010649354    107.95102    632.91557 
   31900    356.32143     0.275069     10.37284   0.39951613       0.0025    4.1552075  0.010124378      109.512    631.95576 
   32000     357.3276   0.27488345    10.407025   0.39951613       0.0025     4.497919  0.010214615    106.15868    631.05754 
   32100    358.35085   0.27533382    10.442069   0.39951613       0.0025    4.0543674 0.0095170521     107.5654    630.13298 
   32200    359.39481   0.27611418    10.477025   0.39951613       0.0025    4.4509917  0.010170877    108.15478    629.19773 
   32300    360.42895   0.27472836    10.513142   0.39951613       0.0025    4.4311089  0.010151389    109.32355    628.24183 
   32400    361.48856   0.27612114    10.549375   0.39951613       0.0025    4.0876877  0.010108512    108.77511     627.2958 
   32500    362.50936   0.27552388    10.583614   0.39951613       0.0025    4.1810757  0.010912283     107.8388    626.36651 
   32600    363.52931   0.27631757    10.618812   0.39951613       0.0025    4.3337973  0.008788856    107.63322     625.4409 
   32700    364.49995   0.27553472    10.650386   0.39951613       0.0025    4.0164642  0.010086296     110.0253    624.47369 
   32800    365.50384   0.27471556    10.683502   0.39951613       0.0025    3.8840238 0.0099058002    107.59721    623.54886 
   32900    366.51418    0.2752439    10.716283   0.39951613       0.0025    4.3928588  0.010233243    108.55715    622.60725 
   33000    367.56921   0.27567621    10.752277   0.39951613       0.0025    4.0988118  0.010713653     108.2484    621.67109 
   33100    368.59404   0.27464467    10.787504   0.39951613       0.0025     4.233541 0.0099352996    106.92649    620.75808 
   33200    369.64317   0.27442894     10.82156   0.39951613       0.0025    3.8127415  0.010104517    107.17907    619.84051 
   33300     370.7184   0.27469303    10.857668   0.39951613       0.0025    3.9723306  0.010868045    107.67762     618.9142 
   33400     371.7631   0.27430986    10.893022   0.39951613       0.0025    4.6104869  0.010357192    109.95936    617.94944 
   33500    372.78651    0.2764364    10.926947   0.39951613       0.0025    4.4009627  0.010432834    109.44247    616.99354 
   33600    373.83947   0.27506658    10.962308   0.39951613       0.0025    4.2233751 0.0099022504    108.76648    616.04911 
   33700    374.78274   0.27469839    10.993831   0.39951613       0.0025    4.2900621  0.010102109    108.36948    615.11146 
   33800    375.77524   0.27444012    11.026951   0.39951613       0.0025    4.0580024  0.010006486     109.2661    614.15906 
   33900    376.79002   0.27516054    11.060605   0.39951613       0.0025    4.3876786 0.0094865629    108.99157    613.21138 
   34000    377.80091   0.27571263     11.09414   0.39951613       0.0025    3.8629931  0.010989739    108.52167    612.27159 
   34100    378.85215   0.27524791    11.128476   0.39951613       0.0025    4.4509689  0.010031957    106.22738    611.37037 
   34200    379.85713   0.27559574    11.162021   0.39951613       0.0025    4.4056523  0.010582345    109.13075    610.42072 
   34300    380.88788   0.27519414    11.196349   0.39951613       0.0025    4.5316317  0.010243485    107.70663    609.49448 
   34400    381.91261    0.2756206    11.229897   0.39951613       0.0025    3.8694079   0.01062169    109.32651    608.54199 
   34500    382.94612   0.27580576    11.263761   0.39951613       0.0025    4.0681607 0.0097785916    109.90245    607.58062 
   34600    383.96539   0.27588384    11.296949   0.39951613       0.0025    4.2844546 0.0099457033    109.03223    606.63328 
   34700    385.00046   0.27579373    11.330842   0.39951613       0.0025    3.9986729  0.010644882     109.0044    605.68655 
   34800    386.01878   0.27673255    11.363863   0.39951613       0.0025    3.6670084 0.0097341962    109.62486    604.73026 
   34900    386.99006   0.27601442    11.395908   0.39951613       0.0025    3.8506487  0.010589183    108.70781    603.78858 
   35000    388.02857   0.27577932    11.429889   0.39951613       0.0025     3.863045  0.011030592    107.71509    602.86276 
   35100    389.04499   0.27549317    11.464274   0.39951613       0.0025    4.4626327  0.010307567    107.18367    601.94545 
   35200    390.09697   0.27689136    11.499671   0.39951613       0.0025    4.4655081 0.0091611427    108.62445    601.00526 
   35300    391.09419   0.27584602    11.532008   0.39951613       0.0025    4.0748919 0.0098167044    108.25066    600.07101 
   35400     392.1025   0.27623111    11.564775   0.39951613       0.0025    4.0677473  0.010889302    108.46139    599.13354 
   35500    393.16227   0.27545555    11.599888   0.39951613       0.0025    4.1857389  0.010795502    105.83881    598.23767 
   35600    394.18866   0.27566626    11.632285   0.39951613       0.0025    4.0902213  0.010412171    107.98459    597.30756 
   35700    395.21845   0.27658563    11.665336   0.39951613       0.0025    4.2021232 0.0095543103    107.82475    596.37995 
   35800    396.19304   0.27595149    11.697036   0.39951613       0.0025    5.2024475 0.0091917797    106.13875    595.47875 
   35900    397.09377   0.27661524    11.725662   0.39951613       0.0025    5.4254504 0.0086222737    105.06916    594.59446 
   36000    397.96432   0.27515059     11.75407   0.39951613       0.0025    5.6727027 0.0084192521    105.92289    593.69615 
   36100    398.86616   0.27600389    11.782503   0.39951613       0.0025    3.7771042  0.010174945    104.17254    592.82567 
   36200    399.88972   0.27594569    11.815088   0.39951613       0.0025    4.4899065  0.010367189    105.65272    591.93098 
   36300    400.93044   0.27661745    11.846957   0.39951613       0.0025    4.3463659 0.0097189673    106.59608    591.02132 
   36400    401.93894   0.27620319    11.878403   0.39951613       0.0025    4.1398187  0.010486983    105.80073    590.12382 
   36500    402.94466   0.27591846    11.909356   0.39951613       0.0025    4.5987845  0.010432128    105.72713     589.2272 
   36600    403.96532   0.27665673     11.94012   0.39951613       0.0025    3.9841959 0.0091131767    106.93208    588.31185 
   36700    404.96757   0.27633873    11.969642   0.39951613       0.0025    4.0650331  0.010334197    105.70344    587.41515 
   36800    406.02397   0.27575853    12.000487   0.39951613       0.0025    4.1376434  0.009633991    106.23967    586.50997 
   36900    407.05032   0.27606513    12.031383   0.39951613       0.0025    4.6327164  0.009937705    107.11043    585.59151 
   37000    408.10046   0.27535116    12.063056   0.39951613       0.0025    3.9343361 0.0098850012    106.30675    584.68499 
   37100    409.12656   0.27514644      12.0938   0.39951613       0.0025    4.6115876  0.010369025    105.72937      583.787 
   37200    410.15638   0.27462282    12.125699   0.39951613       0.0025     4.411471 0.0096923041    107.41348    582.86371 
   37300    411.19562   0.27576685    12.157562   0.39951613       0.0025    4.0542917  0.011112527    106.94569    581.94723 
   37400    412.22027    0.2757594     12.18854   0.39951613       0.0025    3.9464396  0.010544896    106.68395    581.03449 
   37500    413.24962   0.27525612    12.219708   0.39951613       0.0025    3.7682364  0.011227332     106.1319    580.12974 
   37600    414.32456     0.275321     12.25154   0.39951613       0.0025    4.1447917  0.010655308    104.70787    579.24606 
   37700    415.36957   0.27481892    12.282466   0.39951613       0.0025    3.9926233  0.010077477    105.53678    578.34961 
   37800    416.38318   0.27557395    12.312825   0.39951613       0.0025    4.6845091  0.010219165    105.17048    577.45831 
   37900    417.42125   0.27487225    12.344857   0.39951613       0.0025    4.0973016  0.010061281    106.80419    576.54287 
   38000     418.4464    0.2759475    12.376668   0.39951613       0.0025    4.0749254  0.011229759    106.50751    575.63158 
   38100    419.45496   0.27560813    12.407057   0.39951613       0.0025    4.8824249 0.0098542211     105.6043    574.73318 
   38200    420.45169   0.27552701    12.436588   0.39951613       0.0025    3.8328606   0.01040477    107.26898    573.81076 
   38300     421.4692   0.27545255    12.467445   0.39951613       0.0025    4.1889038  0.010441636     107.2333    572.88879 
   38400    422.47413   0.27448036    12.497189   0.39951613       0.0025     3.841342  0.010257598    109.36348    571.93762 
   38500      423.522   0.27414872    12.527615   0.39951613       0.0025    4.0234524  0.010864822    106.87884    571.02061 
   38600    424.55667   0.27429906    12.557301   0.39951613       0.0025    3.9535155  0.011108675    107.02846    570.10141 
   38700    425.54964   0.27458767    12.585614   0.39951613       0.0025    4.5217683 0.0093934363    106.33208    569.19183 
   38800    426.52834   0.27598037    12.612462   0.39951613       0.0025    3.9691636 0.0089514607    105.43907    568.29465 
   38900    427.55445   0.27549036    12.642139   0.39951613       0.0025    4.3961898  0.010193166    107.25079    567.37205 
   39000    428.56464   0.27602555    12.670606   0.39951613       0.0025    3.7523084  0.010738451    103.31411    566.50496 
   39100    429.55782   0.27546925    12.698756   0.39951613       0.0025    3.9756519 0.0098451324    106.83942    565.58761 
   39200    430.56291   0.27497825    12.727836   0.39951613       0.0025    3.9925534  0.010124602    107.11811     564.6664 
   39300     431.5999   0.27542235    12.756326   0.39951613       0.0025    4.2417207 0.0093199103    105.71785    563.76421 
   39400    432.62085   0.27472318    12.785816   0.39951613       0.0025    3.7543045   0.01005218    106.38332    562.85271 
   39500    433.63406   0.27362354    12.814887   0.39951613       0.0025    4.0206524  0.010554104    107.22228    561.92979 
   39600    434.69488   0.27539973    12.845341   0.39951613       0.0025    3.9894171  0.010769594    106.77977    561.01272 
   39700    435.74514   0.27632569    12.876004   0.39951613       0.0025    4.2568017  0.010192586    105.46386     560.1133 
   39800     436.7593   0.27490352    12.905046   0.39951613       0.0025    4.6163142   0.01052037    107.00096    559.19304 
   39900    437.78213   0.27533772    12.935029   0.39951613       0.0025    4.0256103  0.010506891    106.80508    558.27528 
   40000    438.79134     0.275317    12.965129   0.39951613       0.0025    3.8093621  0.010003204    108.31725    557.33783 
   40100     439.8288   0.27461973    12.997139   0.39951613       0.0025     4.275237  0.010212738    104.54827    556.45016 
   40200    440.87163   0.27550059    13.028652   0.39951613       0.0025     4.071651  0.010007694    106.85578    555.53142 
   40300    441.89919   0.27522438    13.060289   0.39951613       0.0025    4.0765792  0.010817911    104.55669    554.64308 
   40400     442.9674   0.27478713    13.091864   0.39951613       0.0025    4.5619533  0.010182651    105.35919    553.74366 
   40500    443.97605    0.2753811    13.121798   0.39951613       0.0025    3.8709947  0.010343851    105.90572     552.8368 
   40600    444.98046   0.27518736    13.151057   0.39951613       0.0025    4.3680122 0.0091975983    104.65507    551.94626 
   40700    446.02835   0.27649965    13.182242   0.39951613       0.0025    3.9113869  0.010159627    106.49104     551.0314 
   40800    447.06718   0.27555796    13.213583   0.39951613       0.0025    3.9961248  0.010506304    108.05637    550.09668 
   40900    448.10362   0.27640993    13.244821   0.39951613       0.0025    4.7078266 0.0098424788    106.80337     549.1777 
   41000    449.11438   0.27531706    13.275313   0.39951613       0.0025    3.9729106 0.0096587425    104.58064    548.28727 
   41100    450.11175   0.27482775    13.305209   0.39951613       0.0025    3.7348385  0.010544968    106.77885    547.36831 
   41200    451.15332   0.27574392    13.336439   0.39951613       0.0025    4.1807324 0.0097941948    105.74616    546.46231 
   41300    452.18374   0.27668833    13.367523   0.39951613       0.0025    3.7855932  0.010672819    108.69598    545.51965 
   41400    453.22173   0.27473192     13.39953   0.39951613       0.0025    4.0970456  0.010416262    107.30411    544.59399 
   41500     454.2479   0.27509059    13.429746   0.39951613       0.0025    4.0273542  0.009637941    107.92013     543.6608 
   41600    455.26692   0.27665619    13.461132   0.39951613       0.0025     3.949532 0.0098635391    109.59507    542.70776 
   41700    456.29162   0.27613019    13.492573   0.39951613       0.0025    4.0774035  0.010635157    106.51838    541.79176 
   41800    457.33378   0.27517874    13.524844   0.39951613       0.0025    4.4792519  0.010665241     105.3863     540.8897 
   41900    458.38406   0.27545496    13.557386   0.39951613       0.0025    4.3183082   0.01084477    105.72825    539.98316 
   42000    459.45097   0.27592157    13.590094   0.39951613       0.0025    4.4270005 0.0094876312    104.29757    539.09434 
   42100    460.46043   0.27560508    13.620585   0.39951613       0.0025     3.875249  0.010973257     108.8964    538.14951 
   42200    461.45097   0.27560551    13.651684   0.39951613       0.0025    4.5267724  0.010100203    107.95955    537.21572 
   42300    462.42861    0.2766726    13.681486   0.39951613       0.0025     3.836855 0.0092227694    106.80234    536.29565 
   42400    463.33118   0.27653102    13.708746   0.39951613       0.0025    4.1657412  0.010601037      106.537    535.37867 
   42500    464.33963   0.27692937    13.740508   0.39951613       0.0025    4.4456624  0.010526676    109.04317    534.43241 
   42600    465.35333   0.27548825    13.772887   0.39951613       0.0025    4.3784042 0.0099790355    106.80043    533.51223 
   42700    466.37339   0.27540133     13.80511   0.39951613       0.0025    4.1554494   0.01057563    106.41037    532.59658 
   42800     467.4359   0.27634997    13.839117   0.39951613       0.0025    4.2515418  0.010567876    106.06083    531.68495 
   42900    468.45659   0.27532161    13.872074   0.39951613       0.0025    4.0810568 0.0094962087    107.11754     530.7608 
   43000    469.48305   0.27558197    13.904588   0.39951613       0.0025    4.4892406  0.010085003    105.31239    529.85782 
   43100    470.50364   0.27500003    13.937145   0.39951613       0.0025     4.031606  0.011267503    105.29098    528.95488 
   43200    471.53063   0.27592866    13.969982   0.39951613       0.0025     4.498514 0.0099489696    105.21209    528.05266 
   43300    472.56808   0.27538702      14.0028   0.39951613       0.0025    4.6759488  0.010089974    107.03179    527.12906 
   43400    473.56172   0.27612487    14.033936   0.39951613       0.0025    4.7964183  0.009398384     106.7295    526.20885 
   43500    474.60319   0.27619836    14.066739   0.39951613       0.0025    4.4026473  0.010389233    107.66695    525.27798 
   43600    475.65106   0.27534437    14.099393   0.39951613       0.0025    4.0588428 0.0098980765     104.9773    524.37789 
   43700    476.71517   0.27575932    14.131649   0.39951613       0.0025    4.0428692  0.010655653    104.91452     523.4783 
   43800    477.75036   0.27571069    14.162464   0.39951613       0.0025    4.6124435 0.0098779144    106.39452    522.56146 
   43900    478.74577   0.27572473    14.193343   0.39951613       0.0025    4.0075333  0.010760534    108.80138    521.61793 
   44000    479.78176   0.27531243    14.225018   0.39951613       0.0025     3.927854  0.010365599    106.16341    520.70359 
   44100     480.7813   0.27510943    14.255646   0.39951613       0.0025    4.0650505  0.010764096    106.00251    519.79093 
   44200    481.80251   0.27628746    14.285691   0.39951613       0.0025    4.6470324 0.0093571036    106.40459    518.87363 
   44300    482.81311   0.27625993    14.315955   0.39951613       0.0025    3.9536668  0.010945974    108.70547    517.93123 
   44400    483.86681   0.27525351    14.348505   0.39951613       0.0025    4.5918516  0.010606338    107.36745    517.00327 
   44500     484.9056   0.27521511    14.379239   0.39951613       0.0025    3.9139769  0.010010081      106.226    516.08779 
   44600    485.91881   0.27557153    14.408085   0.39951613       0.0025    4.3788529 0.0098254718    104.44398    515.19214 
   44700    486.94351   0.27519269    14.438078   0.39951613       0.0025     5.224039  0.009402776    106.96584    514.26828 
   44800    487.97642   0.27459794    14.467461   0.39951613       0.0025    4.1688518 0.0096995016    106.49082    513.34952 
   44900    488.99513    0.2761111    14.496517   0.39951613       0.0025    4.2882846 0.0095609901    105.58503    512.44055 
   45000    490.02178   0.27532171    14.526952   0.39951613       0.0025    4.0588852  0.010703657    105.46399    511.53274 
   45100    491.06019   0.27442705    14.557714   0.39951613       0.0025    4.0913894  0.010265062    104.69898    510.63319 
   45200    492.08148   0.27386799    14.588035   0.39951613       0.0025    4.1398095  0.010191726    108.04014    509.69758 
   45300    493.10034   0.27481828    14.617588   0.39951613       0.0025    4.6220164 0.0086824002    105.88677    508.78474 
   45400    494.14634   0.27474347    14.648583   0.39951613       0.0025    4.2755138  0.011009883    107.50538    507.85466 
   45500    495.16115   0.27549243     14.67682   0.39951613       0.0025    4.8507092 0.0096972122     107.1777    506.92799 
   45600    496.18149    0.2753525    14.705657   0.39951613       0.0025    4.1261897 0.0098344144     105.4642    506.01938 
   45700    497.21479   0.27566084    14.734988   0.39951613       0.0025    4.5779818  0.010459558    106.02464    505.10463 
   45800    498.22686   0.27509529    14.763653   0.39951613       0.0025     4.846922 0.0094747855    105.34445    504.19697 
   45900    499.19376   0.27528027    14.790588   0.39951613       0.0025     4.592145  0.010141517    106.01866    503.28202 
   46000    500.21891   0.27578077    14.819512   0.39951613       0.0025    4.3477565 0.0097521272    106.55505    502.36136 
   46100    501.19753    0.2757259      14.8482   0.39951613       0.0025     3.829338 0.0093545434    105.76829    501.44879 
   46200    502.22908    0.2750877      14.8776   0.39951613       0.0025    3.9950669 0.0096279574    105.89676    500.53475 
   46300    503.29513   0.27502754    14.908421   0.39951613       0.0025    3.9320394  0.010234882    105.92905    499.62024 
   46400    504.33312   0.27457979    14.939031   0.39951613       0.0025    4.3003226  0.010477447    105.95353    498.70534 
   46500    505.31898   0.27523952     14.96838   0.39951613       0.0025    4.5675848 0.0097461869    106.68658    497.78287 
   46600    506.28982   0.27507402    14.997133   0.39951613       0.0025    4.7847277  0.010397933        107.9    496.84825 
   46700    507.31206   0.27415221     15.02864   0.39951613       0.0025    4.4308264  0.010527104      106.637    495.92619 
   46800    508.33992   0.27468152    15.060008   0.39951613       0.0025    3.9845109 0.0095448109    105.34765    495.01711 
   46900    509.33172   0.27616898    15.090595   0.39951613       0.0025    4.1565519  0.010407811    104.63601    494.11517 
   47000    510.34083   0.27631927    15.122459   0.39951613       0.0025    3.6942966  0.010485203    104.98907    493.20938 
   47100    511.38014   0.27576479     15.15415   0.39951613       0.0025    4.0827877 0.0095444117    107.07545    492.28254 
   47200    512.40321   0.27547053    15.185446   0.39951613       0.0025     3.903438  0.010495355    106.39474    491.36236 
   47300    513.39115   0.27553586     15.21536   0.39951613       0.0025    4.2440258  0.010806173    105.51562    490.45082 
   47400    514.41351   0.27610397    15.246631   0.39951613       0.0025    4.0292655  0.010580388    106.44469    489.52995 
   47500     515.4105   0.27568874    15.278412   0.39951613       0.0025     4.203466  0.011070306    105.58636    488.61744 
   47600    516.45001   0.27579998    15.310853   0.39951613       0.0025    4.5068932  0.010362666    104.95437    487.71106 
   47700    517.45283   0.27622478    15.342693   0.39951613       0.0025    4.3934519  0.010565679    106.45933    486.78972 
   47800    518.46953   0.27577664    15.375434   0.39951613       0.0025    4.3142766  0.010685503    106.11023    485.87168 
   47900     519.4819   0.27700774    15.407501   0.39951613       0.0025    4.1481254  0.010280823    106.43575    484.95041 
   48000    520.49894    0.2742574    15.439887   0.39951613       0.0025    4.1827578  0.010458496    103.70302    484.05588 
   48100    521.53332    0.2743801     15.47202   0.39951613       0.0025     4.376436 0.0090987942    104.76098    483.15055 
   48200    522.53114   0.27593938    15.503173   0.39951613       0.0025    4.1191616  0.010213236    106.85529    482.22491 
   48300    523.52042   0.27583437    15.534626   0.39951613       0.0025    4.5841002 0.0093933126    107.92238    481.28932 
   48400    524.53403   0.27617514    15.565825   0.39951613       0.0025    4.2645708  0.010393224    105.09246    480.38038 
   48500    525.54354   0.27694444    15.597044   0.39951613       0.0025    3.9860836   0.01044404    106.03442    479.46228 
   48600    526.58566   0.27585467    15.629416   0.39951613       0.0025    4.0506767 0.0087635443    105.82548    478.54604 
   48700     527.5501   0.27548533    15.658977   0.39951613       0.0025    4.1998286    0.0105217    107.10148    477.61783 
   48800    528.57231   0.27591118    15.690877   0.39951613       0.0025    4.6227509  0.010137395    106.25364    476.69742 
   48900     529.5459   0.27571151    15.720539   0.39951613       0.0025    4.4443768 0.0098213128    106.49731    475.77466 
   49000    530.57559   0.27605119    15.752396   0.39951613       0.0025    4.0395814  0.010896564    105.84228     474.8579 
   49100    531.60577   0.27511302    15.784185   0.39951613       0.0025    3.7347396  0.010252216    103.93757    473.95896 
   49200    532.62866   0.27541808    15.815468   0.39951613       0.0025    3.9271589  0.010535405    107.01024    473.03124 
   49300    533.60848   0.27529054    15.846308   0.39951613       0.0025    4.5558411 0.0092734307     106.2496    472.11038 
   49400     534.6269   0.27596803    15.877367   0.39951613       0.0025    3.9656271  0.010924961    105.50994    471.19619 
   49500    535.68023   0.27578438    15.909443   0.39951613       0.0025    3.8473129  0.011115464    105.45564    470.28237 
   49600    536.70695   0.27623926    15.940931   0.39951613       0.0025    4.3823927  0.010582742    104.57483    469.37652 
   49700    537.72648   0.27532693    15.972372   0.39951613       0.0025    4.2697876 0.0093101156    106.07357     468.4568 
   49800    538.69702   0.27683461    16.001398   0.39951613       0.0025    3.9191877  0.010517666    105.26957    467.54424 
   49900    539.74189   0.27606775    16.031924   0.39951613       0.0025     3.907868  0.011211144    106.82687    466.61762 
   50000    540.77476   0.27554766    16.063053   0.39951613       0.0025    4.0828579 0.0099258742    107.71335    465.68327 
   50100    541.78749   0.27596805    16.093186   0.39951613       0.0025    4.2322451  0.010724621    104.99317    464.77289 
   50200    542.80838   0.27602301    16.123544   0.39951613       0.0025    4.3579179  0.010133562    108.15252    463.83475 
   50300    543.86042    0.2753176    16.154833   0.39951613       0.0025    4.3471363  0.010212218    104.09609    462.93226 
   50400    544.82727   0.27606415     16.18312   0.39951613       0.0025    3.7902879 0.0094155675     108.5438     461.9908 
   50500    545.83967   0.27605674    16.213001   0.39951613       0.0025    3.6110433  0.010274036    105.80589    461.07279 
   50600    546.83736   0.27537016    16.243025   0.39951613       0.0025    4.1412517   0.01090037    107.07223    460.14376 
   50700    547.87444   0.27541993    16.273531   0.39951613       0.0025    3.8785801  0.010394978    105.97015    459.22416 
   50800    548.92938    0.2761481     16.30437   0.39951613       0.0025    3.9837762  0.010006184    106.08683    458.30345 
   50900    549.96141   0.27571933    16.335526   0.39951613       0.0025    3.9252634  0.010528534    106.37337    457.38021 
   51000    550.98281   0.27601168    16.365026   0.39951613       0.0025    4.1412031  0.010747042    105.24089    456.46663 
   51100    551.98089   0.27574834    16.393077   0.39951613       0.0025    3.9841653  0.010872367    104.04333    455.56336 
   51200    553.01997   0.27591308    16.421741   0.39951613       0.0025    4.1350539 0.0096980506    108.71565     454.6205 
   51300     554.0149   0.27533238    16.449983   0.39951613       0.0025    4.3310806  0.010013826    108.46434    453.67975 
   51400    555.05594   0.27651385    16.479145   0.39951613       0.0025    4.0305414  0.010917123     106.5548     452.7547 
   51500     556.0955   0.27523288    16.508238   0.39951613       0.0025    4.4047375   0.01041061    107.75688    451.81973 
   51600    557.09842   0.27486387    16.537734   0.39951613       0.0025    4.2552885 0.0097289542    108.41967    450.87947 
   51700    558.08983   0.27608013    16.566108   0.39951613       0.0025    4.1705494  0.010463406    105.73136     449.9612 
   51800    559.11385   0.27689421    16.595238   0.39951613       0.0025    4.2078982  0.010264746    106.06963       449.04 
   51900    560.16756   0.27640249    16.625576   0.39951613       0.0025    4.1810886 0.0096472504    109.28114    448.09305 
   52000    561.20124   0.27618656     16.65527   0.39951613       0.0025    4.3519991  0.010819738    107.05583    447.16377 
   52100    562.20823   0.27488793    16.684334   0.39951613       0.0025    4.3464425  0.010032726    106.10416    446.24218 
   52200    563.25512   0.27614086    16.714565   0.39951613       0.0025    4.3124229  0.010332872    107.36344    445.31039 
   52300    564.29206   0.27705693     16.74352   0.39951613       0.0025    4.6395715 0.0098853918    105.90706    444.39029 
   52400    565.31785   0.27690226    16.772686   0.39951613       0.0025    3.9790383  0.011104091    106.45398    443.46568 
   52500    566.37993   0.27695127    16.802524   0.39951613       0.0025    4.2535568  0.010980232    105.41686    442.54938 
   52600    567.40119   0.27653198    16.830367   0.39951613       0.0025    3.7759085  0.010350961    107.31374    441.61784 
   52700    568.43745   0.27684771     16.85903   0.39951613       0.0025     4.001031 0.0091223084    106.08661    440.69598 
   52800    569.44242   0.27573214    16.887027   0.39951613       0.0025    3.9864949  0.010823403    106.27095    439.77258 
   52900    570.50566   0.27620747    16.917556   0.39951613       0.0025    4.3314792    0.0106494     107.0956    438.84266 
   53000    571.52314   0.27590288    16.946733   0.39951613       0.0025    4.3244309 0.0098840611    105.73664    437.92336 
   53100    572.55004   0.27558197      16.9766   0.39951613       0.0025    5.0565041 0.0091911421    104.63546    437.01276 
   53200    573.50254   0.27698806    17.003906   0.39951613       0.0025    4.4309299 0.0096790068    105.69886    436.09354 
   53300    574.46638   0.27522906    17.031116   0.39951613       0.0025    4.7701758 0.0094727648    106.05791     435.1714 
   53400    575.40137   0.27639591     17.05738   0.39951613       0.0025    4.2147553 0.0090166831    105.53344    434.25328 
   53500    576.37506   0.27571836     17.08449   0.39951613       0.0025    4.1502522  0.010606315    106.75414    433.32562 
   53600    577.41799   0.27579372      17.1142   0.39951613       0.0025    4.0128042  0.010705948    105.95856    432.40403 
   53700     578.4411   0.27601518     17.14349   0.39951613       0.0025    3.5505044 0.0095452783    105.43987    431.48635 
   53800    579.46629   0.27718003     17.17271   0.39951613       0.0025    3.8194885  0.010413397    106.10843    430.56343 
   53900    580.46565   0.27703728    17.202206   0.39951613       0.0025    4.0430741  0.010390737     105.2542    429.64697 
   54000    581.45525   0.27648283    17.230715   0.39951613       0.0025    5.0698675 0.0090065904    106.25706    428.72276 
   54100    582.37978   0.27651178    17.257316   0.39951613       0.0025     4.361921  0.010092562    104.48371    427.81203 
   54200    583.39168   0.27681601    17.286757   0.39951613       0.0025    3.8924884   0.01005391    105.89463    426.89036 
   54300    584.38327   0.27553233    17.315906   0.39951613       0.0025    3.9096229  0.010041099    109.20332    425.94452 
   54400    585.42274   0.27553286    17.346084   0.39951613       0.0025    4.0974603 0.0099571366    107.42511     425.0115 
   54500    586.45317   0.27565377     17.37562   0.39951613       0.0025    3.9906369 0.0099910657    106.17763    424.08762 
   54600    587.50093   0.27530866    17.406422   0.39951613       0.0025    4.3884528  0.011014541    108.10965    423.14968 
   54700    588.54598    0.2756024    17.436853   0.39951613       0.0025    3.6338079  0.010777739    105.08395    422.23384 
   54800    589.56958   0.27629223    17.466257   0.39951613       0.0025     5.190134 0.0090779493    105.34622    421.31591 
   54900    590.57834   0.27478691    17.496438   0.39951613       0.0025     4.006192  0.010872976    106.47733    420.38959 
   55000     591.6252   0.27599965    17.526923   0.39951613       0.0025    4.7747703  0.010070885    104.60164      419.477 
   55100     592.6318   0.27536761     17.55732   0.39951613       0.0025    4.7252211  0.010184721    105.81897    418.55529 
   55200    593.65123   0.27541331    17.587477   0.39951613       0.0025    4.1296489  0.010591253      105.873    417.63311 
   55300    594.67537   0.27530253     17.61785   0.39951613       0.0025    4.4632101 0.0093853748    107.41681    416.69987 
   55400    595.69782   0.27520042    17.648865   0.39951613       0.0025    4.3987949  0.010498712    105.60531     415.7795 
   55500    596.70613   0.27573843    17.679586   0.39951613       0.0025    4.1789303  0.010298802    107.35684    414.84664 
   55600    597.73909   0.27595897    17.709417   0.39951613       0.0025    4.0539718 0.0096944718    106.77931    413.91781 
   55700    598.76624   0.27601361     17.74083   0.39951613       0.0025    3.9330268  0.010196786    106.73442    412.98927 
   55800    599.78184   0.27492766    17.771827   0.39951613       0.0025    3.5828038  0.010716438    107.80859     412.0533 
   55900    600.82209   0.27590193    17.803988   0.39951613       0.0025    3.7661998  0.010286387    106.03654    411.12959 
   56000    601.85448   0.27587174     17.83499   0.39951613       0.0025    4.0724694  0.010824029    104.29955    410.21816 
   56100    602.88876   0.27612801    17.866652   0.39951613       0.0025    4.1467313  0.010094449    104.16058    409.30755 
   56200    603.90819   0.27487501    17.898273   0.39951613       0.0025    4.7164909 0.0096112356    107.59815    408.37286 
   56300    604.91768   0.27519323    17.929441   0.39951613       0.0025    4.4871927  0.010410676    106.76175    407.44385 
   56400    605.95855    0.2755916    17.961236   0.39951613       0.0025    4.1684928  0.010674679    106.39679    406.51729 
   56500    607.00441   0.27646193    17.993245   0.39951613       0.0025    4.1470831  0.010074298    104.64729    405.60278 
   56600    608.01409   0.27457755    18.024465   0.39951613       0.0025    3.8506883 0.0099255905    105.76045    404.68042 
   56700    609.05086   0.27503758    18.056842   0.39951613       0.0025    4.0597414  0.010566748    108.29203    403.74109 
   56800    610.09046   0.27583687    18.088858   0.39951613       0.0025    4.3491868  0.010840506    105.50861    402.82035 
   56900    611.12882   0.27555824    18.121195   0.39951613       0.0025    4.2339386  0.010640651    106.26643    401.89439 
   57000    612.15028   0.27618343    18.152577   0.39951613       0.0025    4.3095553   0.01050217    103.71097    400.98587 
   57100    613.18651    0.2766194      18.1851   0.39951613       0.0025    4.4153757 0.0086485808    105.64114    400.06392 
   57200    614.18563   0.27614289    18.217157   0.39951613       0.0025    4.0169046 0.0098475116    106.90066    399.13354 
   57300    615.24217   0.27602896    18.249316   0.39951613       0.0025    4.6861627   0.01013075    105.21443    398.21431 
   57400    616.26611   0.27556529     18.28078   0.39951613       0.0025     4.418866 0.0096310636    105.39506    397.29377 
   57500    617.24963   0.27548428    18.311786   0.39951613       0.0025    3.6653967  0.010256846    107.56631    396.35897 
   57600    618.27323   0.27541621     18.34365   0.39951613       0.0025    4.1697834 0.0098610033    107.96827    395.42164 
   57700    619.24658   0.27548017    18.375322   0.39951613       0.0025    4.1060251 0.0097280806    106.77931    394.49191 
   57800    620.23396   0.27544029    18.406583   0.39951613       0.0025    4.1527016  0.010321604    106.94572    393.56109 
   57900    621.26359    0.2768441    18.440066   0.39951613       0.0025    4.5771241  0.010407772    107.95021    392.62393 
   58000    622.28848   0.27566288    18.472981   0.39951613       0.0025    4.0800431   0.01021556    106.13851    391.69826 
   58100     623.3087   0.27548103    18.505592   0.39951613       0.0025    4.7727017  0.010052758    105.21686    390.77849 
   58200    624.33495   0.27535984    18.538385   0.39951613       0.0025    4.0514046 0.0097094644    106.94135     389.8476 
   58300    625.35365   0.27486368     18.57094   0.39951613       0.0025    3.9660515  0.010678768    107.87708     388.9109 
   58400     626.3747   0.27602848    18.602788   0.39951613       0.0025    4.6339805  0.010131792    109.04235    387.96717 
   58500    627.38487   0.27517587    18.635145   0.39951613       0.0025    4.3031116 0.0095727266    105.78416    387.04357 
   58600    628.39645   0.27524165    18.666439   0.39951613       0.0025    4.1525876  0.008897137    107.12304    386.11155 
   58700    629.42193   0.27601377    18.698481   0.39951613       0.0025    4.1737477  0.010975056    105.77389     385.1879 
   58800    630.42994   0.27653608      18.7289   0.39951613       0.0025    4.3938646 0.0096228705    106.31397    384.26081 
   58900    631.42985   0.27497576    18.759665   0.39951613       0.0025    4.2654304  0.010810028    105.54124    383.33849 
   59000    632.49479   0.27415276    18.792497   0.39951613       0.0025    3.6456405  0.010590212    105.61512    382.41561 
   59100    633.52974   0.27402764    18.824564   0.39951613       0.0025     4.036626 0.0099312422    105.32868    381.49444 
   59200     634.5306   0.27488008    18.856472   0.39951613       0.0025    3.6095996  0.011161543    105.99139    380.56908 
   59300    635.57301   0.27531786    18.889088   0.39951613       0.0025    4.4817806  0.010250735    105.09654    379.64918 
   59400    636.59718   0.27491991    18.921839   0.39951613       0.0025    4.2676853  0.010764385    106.13402    378.72281 
   59500     637.6496    0.2757254    18.955161   0.39951613       0.0025     4.210384 0.0099878615    105.86413    377.79802 
   59600    638.66871   0.27458303    18.987592   0.39951613       0.0025    5.0710943 0.0096572401    106.61436    376.86866 
   59700    639.68788   0.27539559    19.019333   0.39951613       0.0025     3.907077  0.010256732    108.92913    375.92582 
   59800    640.69672   0.27532202    19.051503   0.39951613       0.0025    4.0416264  0.008368737    105.19718    375.00495 
   59900    641.73235   0.27510686    19.084896   0.39951613       0.0025    3.6876674  0.010885316     105.9825    374.07927 
   60000    642.74609   0.27515406    19.118193   0.39951613       0.0025    4.0465805   0.01053197    106.53632    373.15025 
   60100    643.75329    0.2747313    19.150661   0.39951613       0.0025    4.2224091  0.010614877    106.63971    372.22061 
   60200    644.75702   0.27542581    19.183033   0.39951613       0.0025     4.518451  0.010535139    107.41956    371.28643 
   60300    645.80162   0.27409356    19.217041   0.39951613       0.0025    4.5206127  0.010261771    106.42181    370.35801 
   60400    646.83793   0.27498123    19.249855   0.39951613       0.0025    4.4813026  0.010656761    105.76034    369.43341 
   60500     647.9064   0.27445619    19.284558   0.39951613       0.0025    4.4374076  0.010767016    105.73755    368.50887 
   60600    648.94105   0.27492898      19.3182   0.39951613       0.0025    4.0716841  0.010315606    107.55254    367.57388 
   60700    649.98135   0.27505394    19.352071   0.39951613       0.0025    4.6069554   0.01026597    108.56645    366.63329 
   60800    650.97929   0.27546834    19.383592   0.39951613       0.0025    4.2296391  0.010594215    106.96925    365.70163 
   60900    652.03314   0.27596774    19.418222   0.39951613       0.0025    4.2493157 0.0099059858    106.27725    364.77387 
   61000    653.09789   0.27502638    19.453743   0.39951613       0.0025    3.7814872  0.010034722    105.09856    363.85281 
   61100    654.14518   0.27548366    19.488999   0.39951613       0.0025    4.2089786  0.010256581    105.32546    362.93035 
   61200    655.17486   0.27637306    19.523073   0.39951613       0.0025    4.0670972  0.010051864    106.00947    362.00392 
   61300    656.21816   0.27644601    19.557356   0.39951613       0.0025     4.132954  0.010060378    106.35524    361.07549 
   61400    657.25199   0.27636048    19.591284   0.39951613       0.0025    4.1567883  0.010380169    106.93222    360.14384 
   61500    658.27864   0.27586229    19.624717   0.39951613       0.0025     4.258358 0.0098308838    107.29313     359.2102 
   61600    659.28678   0.27614247    19.657111   0.39951613       0.0025     4.093201  0.010426386     105.6878     358.2854 
   61700    660.31205   0.27524568    19.690355   0.39951613       0.0025     4.012594  0.010679886    106.76849    357.35458 
   61800    661.34096   0.27556497    19.723743   0.39951613       0.0025    4.6215053   0.01016908    104.82586    356.43447 
   61900    662.35605   0.27594892    19.757354   0.39951613       0.0025    3.9495012  0.011171666    106.31885    355.50601 
   62000    663.37026   0.27553105    19.789875   0.39951613       0.0025    3.9111289 0.0099033796    103.62383     354.5925 
   62100    664.41423   0.27651014    19.825518   0.39951613       0.0025    4.1422186  0.010426803     105.5477    353.66809 
   62200    665.35432   0.27678049     19.85712   0.39951613       0.0025    3.6414846  0.009344268    106.15417    352.74032 
   62300    666.29775   0.27496462    19.888598   0.39951613       0.0025    4.1915164  0.009513973    105.98601     351.8134 
   62400    667.31016   0.27613692    19.921722   0.39951613       0.0025    4.2058825  0.010936444     107.0572    350.88074 
   62500     668.3201   0.27696905    19.954965   0.39951613       0.0025    4.3106642  0.010378913    106.67806    349.95008 
   62600    669.34696    0.2763266    19.988053   0.39951613       0.0025       4.6284  0.010382713    107.04001    349.01749 
   62700    670.33351   0.27592458    20.020088   0.39951613       0.0025    4.3111771 0.0092959802    106.81158    348.08609 
   62800    671.36038   0.27657981    20.053052   0.39951613       0.0025    4.5429348  0.010354176     105.9916    347.15896 
   62900    672.35841   0.27670715    20.085744   0.39951613       0.0025    4.0771503  0.010419909    105.85069    346.23252 
   63000    673.38761   0.27667127    20.119173   0.39951613       0.0025    4.2733431  0.010862382    103.16573    345.32047 
   63100    674.43444    0.2757682    20.153822   0.39951613       0.0025     4.037452 0.0099870941    105.60409    344.39514 
   63200    675.45327   0.27602879    20.186454   0.39951613       0.0025    3.8328133 0.0099558491    106.49628    343.46513 
   63300    676.43373   0.27531403    20.217801   0.39951613       0.0025    4.0337136  0.010528524    104.83289    342.54373 
   63400    677.47055   0.27475539    20.250361   0.39951613       0.0025    4.0071206 0.0092679323    105.68043    341.61781 
   63500    678.50043   0.27571016    20.283372   0.39951613       0.0025    3.7184526   0.01095536    106.15341     340.6894 
   63600    679.52198   0.27504357    20.315433   0.39951613       0.0025    3.9730927  0.010774012    106.48333    339.75927 
   63700    680.56311   0.27424527    20.347973   0.39951613       0.0025      4.84493 0.0095479784      104.467    338.83945 
   63800    681.57696    0.2755893    20.379454   0.39951613       0.0025    4.2149547  0.010156405    106.20594    337.91062 
   63900    682.60061   0.27468566    20.412359   0.39951613       0.0025    4.1056252  0.010584538    107.28371     336.9764 
   64000    683.60597   0.27569265    20.445692   0.39951613       0.0025    4.3639696  0.010533384    104.42141    336.05657 
   64100    684.66739   0.27614898    20.480121   0.39951613       0.0025    3.9774287  0.011069962    106.87516     335.1243 
   64200    685.70006   0.27576116    20.513109   0.39951613       0.0025    4.3230607  0.010448577    106.27933    334.19494 
   64300    686.72356   0.27543744     20.54611   0.39951613       0.0025    4.2847688  0.010264343    106.18674    333.26601 
   64400    687.73777   0.27663955    20.577977   0.39951613       0.0025    3.9323847  0.010196369     105.1442     332.3422 
   64500     688.7308   0.27603912    20.609954   0.39951613       0.0025    3.9761065 0.0095862235    105.37083    331.41717 
   64600    689.71864   0.27562094     20.64186   0.39951613       0.0025    4.3369038  0.010527303    106.72975    330.48545 
   64700     690.7639   0.27530796    20.674502   0.39951613       0.0025    4.3684286  0.010239064    106.19577    329.55629 
   64800    691.80838   0.27561345    20.707206   0.39951613       0.0025    4.0018412  0.011058009    107.16174    328.62247 
   64900    692.85582   0.27599109     20.74049   0.39951613       0.0025    4.0814977 0.0092093085       106.69    327.69089 
   65000     693.8645   0.27557523     20.77248   0.39951613       0.0025    4.5125513 0.0098582881    104.53362     326.7697 
   65100    694.85976   0.27508678     20.80461   0.39951613       0.0025    3.9482061 0.0098609025    105.14528    325.84543 
   65200    695.85721   0.27523478    20.836823   0.39951613       0.0025    4.2362377 0.0093343542    107.96349    324.90781 
   65300     696.7705   0.27630118    20.866588   0.39951613       0.0025    4.1425826 0.0089037193    104.27813    323.98763 
   65400      697.744   0.27701558    20.897577   0.39951613       0.0025     4.521219 0.0095616606    104.33109    323.06707 
   65500    698.69564   0.27609088    20.927784   0.39951613       0.0025    3.8746499 0.0099853693    105.03516    322.14301 
   65600    699.70846   0.27562717    20.961421   0.39951613       0.0025     4.059443 0.0090980177    106.89164     321.2102 
   65700    700.67051   0.27650181    20.992788   0.39951613       0.0025    4.1021642 0.0096113077    108.72565    320.26914 
   65800    701.69104   0.27621881    21.026162   0.39951613       0.0025    3.8012706  0.010255566    104.85742    319.34577 
   65900    702.69961   0.27654842    21.059229   0.39951613       0.0025     4.204385 0.0095264321    104.61565    318.42346 
   66000    703.70409   0.27646655    21.091572   0.39951613       0.0025    4.1143359   0.01104088    105.43051    317.49724 
   66100    704.72399   0.27666532    21.125074   0.39951613       0.0025    3.9163676  0.010233929    104.57319    316.57494 
   66200    705.75668   0.27487525    21.159758   0.39951613       0.0025    4.5509108  0.010340623    106.21102    315.64501 
   66300    706.78564   0.27671231    21.192662   0.39951613       0.0025    4.4389026 0.0096773765    106.10462    314.71552 
   66400    707.76078   0.27626109    21.225323   0.39951613       0.0025     3.787052  0.010418899    106.43597    313.78451 
   66500    708.76035   0.27738266    21.257937   0.39951613       0.0025     4.355029  0.010260119    106.65416     312.8525 
   66600    709.76177   0.27671971    21.291028   0.39951613       0.0025    3.8572985  0.010928138    105.86905    311.92397 
   66700    710.79727   0.27608641    21.324205   0.39951613       0.0025    4.2635495  0.010131124    106.14382    310.99417 
   66800    711.78425   0.27612768    21.354553   0.39951613       0.0025    3.9384069  0.010672289    104.75559    310.07053 
   66900     712.8155   0.27655128    21.386629   0.39951613       0.0025     4.078735  0.010450309    106.44334    309.13931 
   67000    713.82897     0.276527    21.419709   0.39951613       0.0025    3.9298081 0.0097960874    105.37375    308.21277 
   67100    714.85964   0.27580157    21.452326   0.39951613       0.0025    4.2648621  0.010262134     105.3783    307.28614 
   67200    715.86572   0.27743869    21.484619   0.39951613       0.0025    4.0992125  0.010438548    106.10494    306.35627 
   67300    716.89212    0.2770576    21.516586   0.39951613       0.0025    3.9372987  0.010886376    106.27852    305.42561 
   67400    717.94293    0.2758729    21.549438   0.39951613       0.0025    3.7354681  0.010907233    104.65692    304.50198 
   67500    718.92816   0.27691455    21.580246   0.39951613       0.0025    4.0647007  0.010643406    105.81921     303.5732 
   67600    719.94647   0.27645056    21.612686   0.39951613       0.0025    4.8628001 0.0098937725    107.11718    302.63888 
   67700    720.92711   0.27549802    21.643334   0.39951613       0.0025    4.2491874 0.0089338653    105.66805    301.71067 
   67800    721.91661   0.27664387    21.675047   0.39951613       0.0025    4.4857303 0.0099309252    106.49228    300.77893 
   67900    722.95615   0.27620694    21.707769   0.39951613       0.0025    4.3120657  0.010646452    105.46054    299.85152 
   68000    723.99789   0.27643441    21.740161   0.39951613       0.0025    4.0582302  0.011053769    104.12231    298.92977 
   68100    725.03898   0.27746277    21.772167   0.39951613       0.0025    3.9381854  0.010984254    104.64256    298.00568 
   68200    726.07589   0.27640217    21.805197   0.39951613       0.0025    3.9001941  0.010425741    106.84388    297.07231 
   68300    727.04434   0.27695861    21.834735   0.39951613       0.0025    5.1588577 0.0095441237    105.79561    296.14324 
   68400    728.05936   0.27658585    21.867434   0.39951613       0.0025    4.6476199  0.010553425    106.56959    295.21095 
   68500    729.09738   0.27521418    21.900963   0.39951613       0.0025    4.5093138  0.010159472      106.991    294.27694 
   68600    730.14332   0.27750911    21.932794   0.39951613       0.0025    3.9784435  0.010187311    106.33771    293.34556 
   68700    731.14146   0.27704072    21.963625   0.39951613       0.0025    4.0404865 0.0098023757    107.42652    292.40981 
   68800    732.17692   0.27660071    21.997156   0.39951613       0.0025    3.9545713   0.01046023    108.05681    291.47162 
   68900    733.19438   0.27663485    22.029011   0.39951613       0.0025    4.1135161   0.01052289    105.54637    290.54339 
   69000    734.22271   0.27646797    22.062181   0.39951613       0.0025    3.8155679  0.010027769    103.33812    289.62421 
   69100    735.21547   0.27616433    22.093638   0.39951613       0.0025    3.7954163  0.010509548    105.83344    288.69468 
   69200    736.26429   0.27556328    22.126361   0.39951613       0.0025    4.2628891  0.010273576    106.86765    287.76104 
   69300    737.31391   0.27596472    22.159304   0.39951613       0.0025    4.2075772  0.010805437    108.47999    286.82123 
   69400    738.34438   0.27609934     22.19201   0.39951613       0.0025    4.2258934  0.011063722    106.75868    285.88803 
   69500    739.38351   0.27543784    22.225743   0.39951613       0.0025    4.0964187   0.01075188    105.56329    284.95947 
   69600     740.4345   0.27579951    22.258388   0.39951613       0.0025    4.0027574  0.010669882    105.63577    284.03057 
   69700     741.3929   0.27638715    22.288319   0.39951613       0.0025    4.0970671  0.009287141    105.74693    283.10119 
   69800    742.35075   0.27576696    22.319689   0.39951613       0.0025    4.3200347  0.010597491     105.3208    282.17342 
   69900    743.34904   0.27614999    22.351504   0.39951613       0.0025    4.3915599  0.010222637    105.87813    281.24343 
   70000    744.37828   0.27624416    22.384742   0.39951613       0.0025    3.7018312 0.0091833451    103.55999    280.32247 
   70100    745.35901   0.27657483    22.416267   0.39951613       0.0025    4.1422923   0.01033816    105.58458    279.39348 
   70200    746.39795   0.27587705    22.449802   0.39951613       0.0025    4.0458661  0.010290013    106.38241    278.46142 
   70300    747.37895   0.27654348    22.481771   0.39951613       0.0025    4.0193846  0.010811343    107.48678    277.52526 
   70400     748.3821   0.27732117    22.513817   0.39951613       0.0025    4.3297389  0.010821392    106.49242    276.59277 
   70500    749.42618   0.27568853    22.547009   0.39951613       0.0025    5.1831783 0.0091886691      105.535    275.66382 
   70600    750.44437   0.27552125    22.579428   0.39951613       0.0025    4.0022852  0.010086378    107.25422     274.7285 
   70700    751.48827   0.27571618    22.612475   0.39951613       0.0025    4.1602803  0.009375843    107.91283    273.79082 
   70800    752.53233   0.27542759    22.645926   0.39951613       0.0025    3.9824975  0.010405282    106.01194    272.86003 
   70900    753.55693    0.2764351    22.677907   0.39951613       0.0025    4.2770286 0.0097138274    105.60967    271.93068 
   71000    754.57446   0.27540586    22.711306   0.39951613       0.0025    4.5994457 0.0093532283    105.40974    271.00202 
   71100    755.58406   0.27500805    22.742493   0.39951613       0.0025    4.4920726 0.0094255458    106.53142    270.06923 
   71200    756.58408   0.27635026    22.773566   0.39951613       0.0025    3.8105899 0.0094282593    105.98812    269.13838 
   71300    757.55363   0.27637362     22.80364   0.39951613       0.0025    4.8875178 0.0095731928    106.67771    268.20504 
   71400    758.57691   0.27641813    22.835905   0.39951613       0.0025    4.0833277 0.0098523187    106.34462    267.27286 
   71500    759.57642   0.27571067    22.867879   0.39951613       0.0025    4.6468133  0.010612051    106.57154    266.33986 
   71600    760.60621   0.27582656    22.900283   0.39951613       0.0025    3.7826622  0.010129813     106.1427    265.40835 
   71700    761.63104   0.27575854    22.933971   0.39951613       0.0025    4.4732138  0.010201455    107.88149    264.47082 
   71800    762.66673   0.27650693    22.966634   0.39951613       0.0025    4.1803157  0.010202474    109.05471     263.5294 
   71900    763.68477     0.276165    22.999043   0.39951613       0.0025    4.4313112 0.0094727601    106.54233    262.59649 
   72000    764.70411   0.27654758     23.03121   0.39951613       0.0025    4.3682132  0.010425963    105.29629     261.6679 
   72100     765.6345    0.2756314    23.060979   0.39951613       0.0025    4.2200743   0.01060598    105.64215    260.73804 
   72200    766.69612    0.2764122    23.094495   0.39951613       0.0025    4.2050187  0.010257126    106.90406    259.80383 
   72300    767.69169   0.27574863    23.126273   0.39951613       0.0025    4.0299761   0.00986373    107.51626    258.86757 
   72400    768.70971    0.2771524    23.157565   0.39951613       0.0025    4.1614604  0.010196271    106.74784    257.93389 
   72500    769.73103   0.27686363    23.189715   0.39951613       0.0025    4.2808081  0.010349539    108.04573    256.99593 
   72600    770.77296   0.27618352    23.221894   0.39951613       0.0025    4.4557457  0.010629404    107.09229    256.06111 
   72700    771.80477   0.27578016    23.254273   0.39951613       0.0025    4.3202605  0.010284711    107.76978     255.1241 
   72800    772.83445   0.27625566    23.286881   0.39951613       0.0025     3.934551  0.010859749    107.29291    254.18865 
   72900    773.86328    0.2768081    23.318859   0.39951613       0.0025    4.0259083  0.011072899    107.06225    253.25395 
   73000    774.89785    0.2761623    23.351782   0.39951613       0.0025     4.072621  0.010514375    103.09704    252.33254 
   73100    775.89596   0.27623408    23.384325   0.39951613       0.0025    4.1924022  0.010729462    105.88431    251.40161 
   73200    776.90149   0.27633863    23.417266   0.39951613       0.0025     4.067312  0.010075986    107.09276    250.46673 
   73300    777.90578   0.27596966    23.449676   0.39951613       0.0025    4.2142572  0.010435804    106.71913    249.53305 
   73400    778.92729   0.27672297    23.483806   0.39951613       0.0025    4.5085357  0.010299985    106.00486    248.60165 
   73500    779.92714   0.27613204    23.515857   0.39951613       0.0025     3.903573 0.0095243827    108.21469    247.66327 
   73600     780.9202   0.27626231    23.547439   0.39951613       0.0025    4.0288158  0.010944892    105.79772     246.7325 
   73700    781.95515   0.27604647    23.580077   0.39951613       0.0025    3.9826065  0.011294517    106.69296    245.79886 
   73800    782.99301   0.27593111    23.613458   0.39951613       0.0025    4.0883043  0.010823085    106.42125    244.86607 
   73900    784.03038   0.27562684     23.64747   0.39951613       0.0025    4.5501627  0.010076684    106.55129    243.93284 
   74000    785.06725   0.27440174    23.682515   0.39951613       0.0025    3.9235616 0.0094802038    104.72884    243.00535 
   74100    786.07495   0.27563206     23.71681   0.39951613       0.0025    3.8241491  0.010411991    106.40788    242.07251 
   74200     787.1067   0.27591899    23.752007   0.39951613       0.0025    3.9326463 0.0091760274    108.14717     241.1344 
   74300    788.09513   0.27622902     23.78484   0.39951613       0.0025    3.9695703  0.010453918    107.09571    240.19946 
   74400    789.09815   0.27599747     23.81842   0.39951613       0.0025    4.5467517 0.0097019317    107.32758    239.26383 
   74500    790.11106   0.27757496    23.852088   0.39951613       0.0025    4.7283105   0.01044341    108.03699    238.32612 
   74600    791.13619   0.27736395    23.886085   0.39951613       0.0025    4.2627917  0.010404691    106.01598    237.39445 
   74700    792.14947   0.27720131    23.919102   0.39951613       0.0025    3.9436533   0.01081614     106.6181    236.46095 
   74800    793.16814   0.27609871    23.952391   0.39951613       0.0025    4.1518451  0.010194102    107.30982    235.52539 
   74900    794.19672   0.27646202    23.985318   0.39951613       0.0025    4.0012174   0.01011419    106.94443    234.59092 
   75000    795.18091   0.27712237    24.017567   0.39951613       0.0025    3.9000398 0.0089872816    104.31685    233.66429 
   75100    796.20347   0.27662203    24.050344   0.39951613       0.0025    4.0686912  0.010553477     105.3571    232.73444 
   75200    797.18577   0.27680474     24.08196   0.39951613       0.0025    4.4295833 0.0099979032    106.46012    231.80129 
   75300    798.21416   0.27636735    24.115934   0.39951613       0.0025    4.5147132  0.010497149    105.50124    230.87093 
   75400    799.21751   0.27717888     24.14962   0.39951613       0.0025    4.1179449 0.0094444496    107.84324    229.93381 
   75500    800.22815   0.27626327    24.183609   0.39951613       0.0025    4.1300713  0.010480897    105.10404    229.00455 
   75600    801.26311   0.27718841    24.217074   0.39951613       0.0025    4.0773899  0.010153392    106.93609    228.06998 
   75700     802.3154   0.27650959    24.251725   0.39951613       0.0025    3.8128921   0.01055917    107.34926    227.13425 
   75800     803.3202   0.27625985    24.283639   0.39951613       0.0025     4.504837 0.0099835995    106.68031    226.20039 
   75900    804.34469   0.27634587    24.316606   0.39951613       0.0025    4.3877099 0.0095059387    108.26835    225.26216 
   76000    805.33686   0.27672259    24.348282   0.39951613       0.0025    4.2893703  0.010018269      105.664    224.33116 
   76100    806.37505   0.27576054    24.382234   0.39951613       0.0025    3.9709478 0.0091209817    105.31826    223.40109 
   76200    807.38362   0.27624007    24.415047   0.39951613       0.0025    4.1957523  0.010757912    107.88393    222.46392 
   76300    808.39591   0.27676095    24.447578   0.39951613       0.0025    4.2771457 0.0099994631    106.43359    221.53069 
   76400    809.38717   0.27676643    24.479968   0.39951613       0.0025    3.8325937  0.010378067    107.60337     220.5943 
   76500    810.38979   0.27616915    24.511943   0.39951613       0.0025    4.2361086    0.0100413    105.43809    219.66379 
   76600    811.42239   0.27503923    24.545397   0.39951613       0.0025    3.8217893  0.010782198    107.15873    218.72858 
   76700    812.43569   0.27631277    24.576594   0.39951613       0.0025    3.5758593 0.0090569898    108.01866    217.79111 
   76800    813.44083   0.27651777    24.607521   0.39951613       0.0025    3.9644011  0.010558846     106.5906    216.85743 
   76900     814.4924   0.27517453    24.639078   0.39951613       0.0025    3.6806955  0.010373164    106.87345    215.92298 
   77000    815.48069   0.27631796      24.6699   0.39951613       0.0025    4.1178284 0.0097525747    106.80544    214.98872 
   77100    816.49564   0.27518338     24.70113   0.39951613       0.0025    4.1823091  0.010516148     106.9066    214.05418 
   77200    817.48633   0.27696378    24.731605   0.39951613       0.0025     4.643363 0.0099986644    105.94657    213.12214 
   77300    818.49029   0.27635685     24.76276   0.39951613       0.0025    3.7337005 0.0095133628    107.56203    212.18591 
   77400    819.47719     0.275268    24.794854   0.39951613       0.0025    4.5032328 0.0094717046     107.7959    211.24911 
   77500    820.51039    0.2758438    24.826577   0.39951613       0.0025    4.1454113  0.010686376    105.34866    210.31859 
   77600    821.55064   0.27551624    24.859596   0.39951613       0.0025    4.0117132  0.010422353     106.1604    209.38593 
   77700    822.58183   0.27570955    24.891778   0.39951613       0.0025    4.2046993  0.010507531    106.59331    208.45214 
   77800    823.61343   0.27526252     24.92401   0.39951613       0.0025    3.7189584  0.011226768    106.47917    207.51863 
   77900    824.62424   0.27585503    24.955405   0.39951613       0.0025    3.9168715 0.0092429405    105.91345    206.58653 
   78000    825.64703   0.27566511    24.987428   0.39951613       0.0025    4.6950351   0.01059839     106.6957    205.65244 
   78100    826.67884   0.27468552    25.020491   0.39951613       0.0025     4.777814  0.010036652    105.80386    204.72056 
   78200     827.7111   0.27582453    25.053163   0.39951613       0.0025    3.9301197  0.010855492    105.29032    203.78994 
   78300    828.74851   0.27638647    25.086135   0.39951613       0.0025    3.6718581   0.01053046    106.31952    202.85671 
   78400    829.77658   0.27690488    25.118846   0.39951613       0.0025    4.3672666  0.010757112    106.60526    201.92277 
   78500    830.82567   0.27617187    25.152437   0.39951613       0.0025    3.7995943  0.010482797    106.96663    200.98796 
   78600     831.8548     0.275878     25.18536   0.39951613       0.0025     4.216321  0.010655825    105.12351    200.05761 
   78700    832.91074   0.27689478    25.217983   0.39951613       0.0025    3.9884199  0.010293193    108.64747    199.11885 
   78800    833.91553   0.27628889     25.24996   0.39951613       0.0025    3.7852027  0.010013347    106.75697    198.18452 
   78900    834.93071   0.27592159    25.282402   0.39951613       0.0025    4.0243499  0.010680247    106.57709    197.25061 
   79000    835.96002   0.27672433    25.313857   0.39951613       0.0025    3.9745419  0.010909542    106.57663     196.3167 
   79100    836.98059   0.27588434    25.345572   0.39951613       0.0025    4.2063893 0.0090179361    104.33916    195.38808 
   79200    837.96364   0.27673437    25.376886   0.39951613       0.0025     3.813534  0.010473803    107.09413    194.45292 
   79300    839.01021   0.27640863    25.409269   0.39951613       0.0025    4.0000717  0.010856797    108.95122     193.5136 
   79400    840.03246   0.27585104    25.441604   0.39951613       0.0025    4.0344542  0.011188844     105.8042    192.58143 
   79500    841.10006   0.27576713    25.475656   0.39951613       0.0025    4.6332784  0.010481152    105.42518    191.65009 
   79600    842.10207   0.27629621     25.50735   0.39951613       0.0025    4.3384026  0.010167581    105.39917    190.71878 
   79700    843.14542    0.2761744    25.541158   0.39951613       0.0025    4.2072392  0.010700543    107.00749    189.78378 
   79800     844.1769   0.27706505    25.573243   0.39951613       0.0025    4.6004454  0.010330963    106.75104    188.84936 
   79900    845.17385   0.27648341    25.604582   0.39951613       0.0025    4.1479201 0.0099389579    107.85522    187.91252 
   80000     846.1831   0.27731403    25.637782   0.39951613       0.0025    3.9902727  0.010384198    105.19826    186.98155 
   80100    847.23042   0.27584202    25.671686   0.39951613       0.0025    4.0646559  0.010443515    106.65574    186.04731 
   80200    848.24475   0.27673516    25.704536   0.39951613       0.0025    4.2043822 0.0098926684    104.95812    185.11681 
   80300    849.25898   0.27663394    25.737475   0.39951613       0.0025    4.3233487  0.010793142     106.7401    184.18235 
   80400    850.28679    0.2759898    25.770806   0.39951613       0.0025     4.128677   0.01001602    106.36951    183.24867 
   80500    851.31596    0.2761571    25.804461   0.39951613       0.0025    4.0691271  0.010236262    106.98025    182.31369 
   80600    852.31531   0.27660431    25.836259   0.39951613       0.0025    4.7373594   0.01041211    106.15882    181.38044 
   80700    853.34684   0.27622475    25.869513   0.39951613       0.0025    4.0939984  0.010372631     106.6843    180.44606 
   80800    854.34744    0.2761933    25.901798   0.39951613       0.0025    4.3401513 0.0099128692    106.98917    179.51104 
   80900    855.34133   0.27712643    25.934745   0.39951613       0.0025    4.8026756  0.010379139    107.80139    178.57436 
   81000     856.3711   0.27660724    25.968313   0.39951613       0.0025    3.8185215  0.010312256    105.29883    177.64287 
   81100    857.38017   0.27787754    26.001114   0.39951613       0.0025    4.6451752  0.010236674     106.0883    176.70969 
   81200    858.39382   0.27730549    26.034263   0.39951613       0.0025    3.7397487 0.0098124229     106.1482    175.77636 
   81300    859.39372   0.27650305     26.06693   0.39951613       0.0025    4.2716212 0.0099478652    106.02408    174.84327 
   81400    860.40708   0.27745296     26.09879   0.39951613       0.0025    4.5401529 0.0096984521    107.89595    173.90641 
   81500    861.38454   0.27726096    26.131036   0.39951613       0.0025    4.1360217 0.0088069903    107.20411    172.97094 
   81600    862.33271   0.27742521    26.161404   0.39951613       0.0025    4.2329916  0.010225454    106.86694    172.03613 
   81700    863.34606   0.27673412     26.19432   0.39951613       0.0025    4.0658217 0.0098317727    108.16834     171.0988 
   81800    864.35836   0.27686511     26.22713   0.39951613       0.0025    4.1353537  0.010285417    106.68227    170.16437 
   81900    865.36146   0.27613883    26.259686   0.39951613       0.0025    4.0611749  0.010928643    106.58299    169.23012 
   82000    866.38948   0.27542682    26.292442   0.39951613       0.0025    3.9030025 0.0098580317    106.73885    168.29556 
   82100    867.41286   0.27766208    26.325014   0.39951613       0.0025    4.4725657  0.010866703    106.86751    167.36075 
   82200    868.47367   0.27627437    26.359888   0.39951613       0.0025    4.4155449  0.010099834     105.1423    166.42927 
   82300    869.50305   0.27593195    26.394057   0.39951613       0.0025    4.8028618 0.0092857501    105.22196    165.49758 
   82400    870.52399   0.27628267    26.428415   0.39951613       0.0025    3.9203583 0.0094557181    106.11533    164.56414 
   82500    871.52842   0.27584358    26.461488   0.39951613       0.0025    4.2591537  0.010706776    106.26632    163.63039 
   82600    872.56188   0.27582854    26.496355   0.39951613       0.0025    3.7765203  0.010791353    106.43856     162.6963 
   82700    873.57943   0.27638101    26.530113   0.39951613       0.0025    4.1523858  0.010916832    104.65212    161.76555 
   82800    874.61924   0.27690974    26.564243   0.39951613       0.0025    4.0341145  0.010386448    105.97789    160.83227 
   82900    875.68678   0.27697921     26.59869   0.39951613       0.0025    4.2312429   0.01038371    105.19119    159.90041 
   83000    876.72881   0.27614722     26.63304   0.39951613       0.0025    4.6163664 0.0099880431    103.64316    158.97141 
   83100    877.68673   0.27578328    26.664361   0.39951613       0.0025    4.5121288 0.0099867256    107.77637    158.03481 
   83200    878.70868   0.27622082    26.697465   0.39951613       0.0025    4.4301973   0.01000371    105.04179     157.1031 
   83300    879.67515   0.27612135    26.729566   0.39951613       0.0025    4.5925067  0.009948233    108.20006    156.16577 
   83400    880.66777   0.27597122    26.763532   0.39951613       0.0025    3.9752617  0.010939533    105.34799    155.23346 
   83500    881.68423   0.27543521    26.798382   0.39951613       0.0025    4.1070432  0.009737845    107.74049    154.29693 
   83600    882.70374   0.27644959    26.833502   0.39951613       0.0025    4.4865677  0.010876412    106.68433    153.36223 
   83700    883.73832   0.27666959    26.867637   0.39951613       0.0025    4.1142966 0.0093019157    107.08483    152.42685 
   83800    884.73192   0.27638895    26.900432   0.39951613       0.0025     4.136149  0.010348314    107.20343    151.49126 
   83900    885.77364   0.27544857    26.935554   0.39951613       0.0025    4.0250647  0.010300812     105.4033    150.55874 
   84000    886.81862   0.27778436    26.969629   0.39951613       0.0025    4.3921147 0.0094628391    106.47325    149.62437 
   84100    887.80845   0.27551909     27.00272   0.39951613       0.0025    3.8275967  0.010041113    106.61843    148.68974 
   84200    888.84566    0.2761925    27.037477   0.39951613       0.0025    4.2725164  0.010543733    109.08219    147.75113 
   84300    889.84135   0.27595339    27.070893   0.39951613       0.0025    4.1101485  0.010337951    106.43178    146.81682 
   84400    890.83012   0.27637676    27.103964   0.39951613       0.0025    4.4279277  0.010086006    106.76974    145.88195 
   84500    891.81687   0.27607986     27.13785   0.39951613       0.0025    4.2602793 0.0093989662    106.87938     144.9469 
   84600    892.82036   0.27596341    27.171397   0.39951613       0.0025     4.167144  0.010144523     107.1281    144.01145 
   84700    893.83973   0.27650897    27.205827   0.39951613       0.0025    4.4891825   0.01078221    109.47124     143.0724 
   84800    894.88699   0.27663218    27.241493   0.39951613       0.0025    4.2271801  0.010844123    105.78283    142.13912 
   84900    895.93618   0.27664817     27.27637   0.39951613       0.0025    3.7435548  0.010244998    106.16895     141.2052 
   85000     896.9375   0.27802838    27.309974   0.39951613       0.0025    4.8075826   0.00965244    106.14922    140.27129 
   85100    897.93797    0.2774016    27.342664   0.39951613       0.0025    4.0810087  0.010083705    104.95965    139.33923 
   85200    898.95365   0.27683186    27.376763   0.39951613       0.0025    4.6769257 0.0097190779    106.03928    138.40544 
   85300    899.94037   0.27671331    27.408799   0.39951613       0.0025    3.9073312  0.010809277    106.40448    137.47106 
   85400    900.96741   0.27726872    27.443091   0.39951613       0.0025    4.1835667  0.010078821    103.88433    136.54058 
   85500    902.01536   0.27816852    27.476647   0.39951613       0.0025    3.9773582 0.0095596769    105.95522    135.60682 
   85600    903.04142   0.27764555    27.509435   0.39951613       0.0025    4.0962592  0.010948516    105.70253    134.67342 
   85700    904.08477   0.27624289    27.542235   0.39951613       0.0025    4.2816782 0.0099887548    105.17903    133.74078 
   85800    905.11251   0.27598335    27.575076   0.39951613       0.0025    4.5711442  0.009644831    105.95083    132.80695 
   85900     906.1339   0.27792615     27.60737   0.39951613       0.0025    4.2020514  0.010172172    107.58612    131.87075 
   86000    907.14144   0.27652479     27.64075   0.39951613       0.0025    4.3403657   0.01024673    106.20626    130.93652 
   86100    908.14479   0.27631578    27.673429   0.39951613       0.0025    4.1779184  0.010152934    105.09059    130.00389 
   86200    909.14608   0.27717504    27.705761   0.39951613       0.0025    3.9885605 0.0092720024    106.56574    129.06911 
   86300    910.12071   0.27725804     27.73689   0.39951613       0.0025    4.1599156  0.009648927    106.34575    128.13463 
   86400    911.13222   0.27673402     27.76952   0.39951613       0.0025    3.4784301  0.011001957    105.10494    127.20188 
   86500    912.15517   0.27764707    27.802485   0.39951613       0.0025     4.214405 0.0099302509    104.56808    126.26985 
   86600    913.15899   0.27787579    27.834203   0.39951613       0.0025    3.9231834  0.010613702    105.20945    125.33686 
   86700    914.18492   0.27716462    27.865898   0.39951613       0.0025    4.0003692  0.010818166    108.30738    124.39966 
   86800    915.22534   0.27764563    27.898351   0.39951613       0.0025    4.1374216  0.010798974    104.61596    123.46745 
   86900     916.2343    0.2767934    27.929736   0.39951613       0.0025    4.1432869  0.010643246    106.48982    122.53265 
   87000    917.29947   0.27572978    27.963346   0.39951613       0.0025     4.004283 0.0099537723    106.84696    121.59737 
   87100    918.33178   0.27671596    27.996165   0.39951613       0.0025    3.8246853  0.010765079    107.37701     120.6614 
   87200    919.39028   0.27556626    28.029563   0.39951613       0.0025    4.2271181  0.010241446    107.04679    119.72587 
   87300    920.43599   0.27525715    28.062931   0.39951613       0.0025    4.0652952  0.010498647    106.57687    118.79093 
   87400    921.45993   0.27710094    28.095029   0.39951613       0.0025    4.1159735  0.010408951    105.45442    117.85743 
   87500    922.47785   0.27623757    28.127226   0.39951613       0.0025    4.2562485  0.009411301    105.52874    116.92381 
   87600    923.48773   0.27650925    28.159589   0.39951613       0.0025    4.2280575  0.010665321    106.43983      115.989 
   87700    924.49025   0.27595491    28.192326   0.39951613       0.0025     4.278616  0.010015008    104.55734    115.05655 
   87800    925.50971   0.27505307    28.225308   0.39951613       0.0025    4.1661825  0.010364762    106.86661    114.12118 
   87900    926.52931   0.27706015    28.257768   0.39951613       0.0025    3.8292414 0.0096746362    107.86429    113.18461 
   88000     927.5235   0.27651078     28.28972   0.39951613       0.0025    4.3071632  0.010328876    105.75104    112.25059 
   88100    928.54176   0.27656409    28.323064   0.39951613       0.0025    4.2177197  0.010135113    106.70151    111.31541 
   88200    929.55722   0.27712412    28.355649   0.39951613       0.0025    4.2079084  0.010794639    106.58516    110.38036 
   88300    930.58397   0.27620692    28.389826   0.39951613       0.0025    4.1883947  0.010131972    105.88901    109.44612 
   88400    931.59841   0.27698298    28.422913   0.39951613       0.0025    4.8384062 0.0091790108    106.63982    108.51098 
   88500    932.58506   0.27725307    28.454944   0.39951613       0.0025    3.7376075  0.010180181    105.95971    107.57663 
   88600     933.5693   0.27802862      28.4864   0.39951613       0.0025    4.1848078 0.0098074504    104.16177    106.64434 
   88700    934.58523    0.2771341    28.519577   0.39951613       0.0025    4.1055117  0.010376207    108.38617    105.70723 
   88800    935.61778   0.27599678    28.552785   0.39951613       0.0025    3.8438363  0.009986955    105.53152    104.77329 
   88900    936.63071    0.2757691    28.584649   0.39951613       0.0025    4.2115498  0.010288765     105.2748    103.83962 
   89000     937.6254   0.27630828    28.615706   0.39951613       0.0025    4.0728455  0.010958831    106.44934    102.90461 
   89100    938.70284   0.27495254    28.649157   0.39951613       0.0025    3.9054714  0.010744475     106.4686    101.96957 
   89200    939.71674   0.27584761    28.681244   0.39951613       0.0025    4.1587197 0.0099196582    106.74341    101.03423 
   89300    940.72431   0.27681181    28.712972   0.39951613       0.0025    4.1996151  0.010705541    105.83389    100.09985 
   89400    941.73565   0.27590744    28.745173   0.39951613       0.0025    4.3999205  0.010889161    106.24575    99.165017 
   89500    942.75456   0.27804554    28.777649   0.39951613       0.0025    4.1065321 0.0097774674    107.06914    98.229318 
   89600    943.77277   0.27658156    28.810912   0.39951613       0.0025    4.1513653  0.010743861    106.33219    97.294373 
   89700    944.78995   0.27669725    28.842296   0.39951613       0.0025    4.3088133 0.0092971517    107.90419    96.357842 
   89800    945.80708   0.27608506    28.873963   0.39951613       0.0025    4.2620161  0.010168043    106.60003    95.422621 
   89900    946.82236   0.27576512    28.907948   0.39951613       0.0025    4.1910947  0.010531539    105.95241    94.488038 
   90000    947.83573   0.27597302    28.941283   0.39951613       0.0025    3.7526603 0.0095736094    105.23925    93.554146 
   90100    948.84749   0.27603394    28.973726   0.39951613       0.0025     4.843362 0.0099432943    107.89279    92.617649 
   90200    949.85124    0.2751658    29.006086   0.39951613       0.0025    4.4637791 0.0095283472    106.55288     91.68244 
   90300       950.89    0.2760905    29.038933   0.39951613       0.0025    4.1920972  0.010575726    105.56842    90.748163 
   90400    951.88107   0.27625759    29.072437   0.39951613       0.0025    4.3369233 0.0095233643     107.2432    89.812287 
   90500     952.8922   0.27526235    29.105342   0.39951613       0.0025    5.1487149 0.0089564941    105.65554     88.87789 
   90600    953.93265   0.27641843    29.140015   0.39951613       0.0025    3.9469359 0.0098700214    106.00216    87.943144 
   90700    954.95441   0.27645787    29.173451   0.39951613       0.0025    4.6619793  0.010185074    106.91218    87.007556 
   90800    955.98992   0.27672433    29.207936   0.39951613       0.0025    4.1987741  0.010676396    106.27119    86.072541 
   90900    957.03857   0.27718198    29.242435   0.39951613       0.0025    4.2618773  0.010725096    105.47532    85.138223 
   91000    958.09793   0.27626749    29.277484   0.39951613       0.0025    4.2234829  0.010725873    104.28106    84.204949 
   91100     959.1507    0.2763263    29.311974   0.39951613       0.0025    4.3307575   0.01087161    106.29702    83.269841 
   91200    960.16912   0.27569252    29.346017   0.39951613       0.0025    4.2887095   0.01029729    104.61161    82.336184 
   91300    961.20616   0.27632299    29.381283   0.39951613       0.0025    3.9654088 0.0098572861    104.15257    81.402879 
   91400    962.19123   0.27660389    29.413666   0.39951613       0.0025     4.792492  0.010043652     102.7898    80.470714 
   91500    963.21532   0.27662295    29.447412   0.39951613       0.0025    3.9308887  0.009458889    102.98409    79.538288 
   91600    964.21748   0.27693335    29.479592   0.39951613       0.0025    4.2503974  0.010468852    103.72367    78.605144 
   91700    965.22138   0.27758512    29.511694   0.39951613       0.0025    3.9125794  0.010851975    104.62922    77.671177 
   91800    966.22871   0.27791271    29.544671   0.39951613       0.0025    4.8729568 0.0093757057    102.62653    76.738829 
   91900    967.23916   0.27719428    29.577694   0.39951613       0.0025    4.3341612  0.010091598    105.12051    75.804351 
   92000    968.25056   0.27719843    29.610425   0.39951613       0.0025    4.4941191  0.010929325    101.91852    74.872436 
   92100    969.25661   0.27669852    29.643458   0.39951613       0.0025    4.2320138  0.010803776    101.82035    73.940494 
   92200    970.26817   0.27621042    29.676929   0.39951613       0.0025    4.0017585   0.01080043    103.21803    73.007319 
   92300    971.31692   0.27489179     29.71139   0.39951613       0.0025    4.6127719 0.0099058767       103.17    72.074105 
   92400    972.33066   0.27632611    29.744027   0.39951613       0.0025    4.0064791    0.0106677    104.11655    71.140087 
   92500    973.36996   0.27716268    29.776862   0.39951613       0.0025    4.5123552  0.010039137    104.32588    70.205856 
   92600    974.36827   0.27559715    29.808082   0.39951613       0.0025    4.1896715  0.010114625    106.90123    69.269727 
   92700    975.38084   0.27536113    29.838988   0.39951613       0.0025     4.924171  0.009949271    108.17043    68.332736 
   92800    976.39198   0.27591646    29.870254   0.39951613       0.0025    4.4150561 0.0097261071    107.25932     67.39638 
   92900    977.43906   0.27633339    29.902847   0.39951613       0.0025    4.1701502 0.0096483975    107.46032      66.4599 
   93000    978.48263   0.27623513    29.935584   0.39951613       0.0025    4.0857967 0.0094871751    105.98609    65.524407 
   93100    979.47445     0.276558    29.966434   0.39951613       0.0025    4.0065673  0.010471754    104.41356     64.58995 
   93200    980.48504   0.27551273    29.997511   0.39951613       0.0025    5.3257271 0.0092587425    108.19772    63.652999 
   93300    981.50015   0.27642354     30.02746   0.39951613       0.0025    4.8601313 0.0092603936    107.71938     62.71637 
   93400    982.54558   0.27657131     30.05927   0.39951613       0.0025    4.8131264  0.010169946    106.48755    61.780518 
   93500    983.57706   0.27692916     30.08999   0.39951613       0.0025    4.2558344  0.009901942    108.31641    60.843556 
   93600     984.5952   0.27561646    30.121478   0.39951613       0.0025    4.3643897  0.011001568    107.69109     59.90699 
   93700    985.61556   0.27603244    30.152807   0.39951613       0.0025    4.4205257 0.0098624855    106.18179    58.971329 
   93800    986.64131   0.27569329    30.183156   0.39951613       0.0025    4.3216806 0.0097256816    106.39647    58.035529 
   93900    987.67586   0.27617339    30.214219   0.39951613       0.0025       4.0586  0.010290773    108.26142    57.098669 
   94000    988.69513   0.27619361    30.244155   0.39951613       0.0025    4.3876514  0.010416789    106.83098    56.162626 
   94100    989.75738    0.2763324    30.275868   0.39951613       0.0025    3.8473116  0.010875384    104.41891    55.227939 
   94200    990.78419    0.2745973    30.306391   0.39951613       0.0025    4.3620355  0.010097995    106.36781    54.292123 
   94300    991.76178   0.27525416    30.335415   0.39951613       0.0025    3.9573883  0.009808829    107.15933    53.355878 
   94400    992.77667   0.27536253    30.364846   0.39951613       0.0025    4.1978169  0.010351391    108.69009    52.418859 
   94500    993.81541   0.27573043    30.396722   0.39951613       0.0025    4.2414575  0.010410849    107.95113    51.482243 
   94600    994.84947   0.27648411     30.42758   0.39951613       0.0025    4.2724442 0.0098709407    106.77099    50.546233 
   94700    995.86405   0.27612207    30.458379   0.39951613       0.0025    3.9712387  0.010090041    108.45163     49.60941 
   94800    996.85481   0.27565749    30.487974   0.39951613       0.0025    4.1028465  0.010827727    108.63438    48.672533 
   94900    997.89047   0.27594934    30.519444   0.39951613       0.0025     4.923209 0.0096890829    107.85833    47.736046 
   95000    998.87828   0.27671019    30.549033   0.39951613       0.0025    4.1764452  0.009883528    105.86816    46.800496 
   95100    999.90611   0.27584574      30.5806   0.39951613       0.0025    3.6686314  0.010051676    106.89129    45.864462 
   95200    1000.9294   0.27547263    30.612897   0.39951613       0.0025     3.871634  0.010378864      106.913    44.928418 
   95300    1001.9263   0.27592274    30.643562   0.39951613       0.0025    4.0490834  0.010835204    106.15317    43.992707 
   95400    1002.9404   0.27603604    30.674217   0.39951613       0.0025    3.6742151  0.010188004    104.49331    43.057704 
   95500    1003.9345   0.27602843    30.703417   0.39951613       0.0025    4.2443114  0.010552355    104.82039    42.122514 
   95600    1004.9282   0.27513712    30.734108   0.39951613       0.0025    4.5322737  0.010243364    107.30326    41.186268 
   95700    1005.9478   0.27617621    30.764827   0.39951613       0.0025    4.6336434  0.010530929    106.54336     40.25033 
   95800    1006.9822   0.27550255    30.795771   0.39951613       0.0025    4.7775424 0.0090357215     105.6713    39.314727 
   95900    1007.9809   0.27565502    30.825476   0.39951613       0.0025    3.9327447    0.0106231    105.18509    38.379288 
   96000    1009.0116   0.27597338     30.85632   0.39951613       0.0025     4.312806  0.010325081    105.29907    37.443774 
   96100    1010.0165   0.27625085    30.886438   0.39951613       0.0025    4.7314248  0.010479786    107.35731    36.507492 
   96200    1010.9908   0.27602451    30.916844   0.39951613       0.0025     4.207827 0.0096759311    106.82916    35.571402 
   96300    1012.0157   0.27731158    30.948087   0.39951613       0.0025    4.1308972   0.00999881    107.66975    34.635031 
   96400    1013.0565   0.27570813    30.980617   0.39951613       0.0025    3.8898611  0.010868739    107.85286    33.698617 
   96500    1014.0408   0.27571442    31.011158   0.39951613       0.0025    4.1344599 0.0097502085     105.7069    32.762905 
   96600    1015.0486   0.27662489    31.042318   0.39951613       0.0025    4.8813223  0.010224308    106.89919      31.8268 
   96700    1016.0692   0.27709137    31.074081   0.39951613       0.0025    4.9411737  0.010062461    107.56377    30.890499 
   96800    1017.0992   0.27749029    31.106711   0.39951613       0.0025    4.1289759  0.010658208    105.98609    29.954669 
   96900    1018.1251   0.27659011    31.139715   0.39951613       0.0025    4.5849095  0.010586599    107.42096    29.018421 
   97000    1019.1552    0.2767902    31.171589   0.39951613       0.0025    4.0580615  0.010444128    104.35287     28.08303 
   97100    1020.1955   0.27612718    31.204948   0.39951613       0.0025    3.9684454  0.010468441    106.71256    27.146958 
   97200    1021.1983   0.27672089    31.236531   0.39951613       0.0025    4.0309899 0.0098297475    106.14538    26.211029 
   97300    1022.2203    0.2769712     31.26809   0.39951613       0.0025    3.9030299 0.0099698031    106.29185    25.275051 
   97400    1023.2334   0.27589258    31.299197   0.39951613       0.0025    4.8127027 0.0074684527     106.4013    24.339038 
   97500    1024.2411   0.27693031     31.33056   0.39951613       0.0025    3.9987408  0.011133327    107.20551    23.402836 
   97600    1025.2821   0.27659455    31.362706   0.39951613       0.0025    4.3668005  0.010598192    107.36561    22.466606 
   97700    1026.2973   0.27674617    31.392733   0.39951613       0.0025    3.8650509 0.0099379036    105.73574    21.530725 
   97800    1027.3147   0.27580102    31.423014   0.39951613       0.0025    4.2859622 0.0095706067    108.82518    20.594219 
   97900    1028.3314   0.27698748    31.453697   0.39951613       0.0025    4.2449569 0.0092875653    107.53418    19.657986 
   98000    1029.3286   0.27594583    31.484481   0.39951613       0.0025    4.3667484  0.010105821    107.49659    18.721772 
   98100    1030.3441   0.27604122    31.515834   0.39951613       0.0025    4.6615974 0.0096436493    105.16497     17.78597 
   98200    1031.3652   0.27590929    31.547315   0.39951613       0.0025    4.5273446 0.0098078412    108.08987    16.849666 
   98300    1032.3913   0.27606488    31.578015   0.39951613       0.0025    4.7185757  0.010032904    107.36366    15.913492 
   98400    1033.4263   0.27574982     31.61059   0.39951613       0.0025    4.0802928  0.010884601     106.5639    14.977442 
   98500    1034.4897   0.27590141    31.643068   0.39951613       0.0025    4.1433847  0.010596751    106.96813    14.041333 
   98600      1035.51   0.27664628    31.674616   0.39951613       0.0025    4.2321948  0.010431236    107.15736    13.105204 
   98700    1036.5126   0.27522831     31.70649   0.39951613       0.0025    4.6651705 0.0095166201    109.31004    12.168838 
   98800    1037.5275   0.27711375     31.73744   0.39951613       0.0025    4.2856992 0.0098194559    107.89173    11.232661 
   98900    1038.5445   0.27651152    31.768297   0.39951613       0.0025    4.4669652  0.010740681    109.75949    10.296329 
   99000    1039.5582   0.27780173     31.79943   0.39951613       0.0025    4.0300962  0.010581045    107.96513    9.3601996 
   99100    1040.5568   0.27630717    31.831003   0.39951613       0.0025    4.6408292   0.00961489     107.3995     8.424135 
   99200    1041.5493   0.27612452     31.86121   0.39951613       0.0025    4.0055254  0.010436901    109.74754    7.4879197 
   99300    1042.5751   0.27526723    31.892651   0.39951613       0.0025    3.9852287  0.010381649    107.88035    6.5518661 
   99400    1043.5836   0.27627041    31.923207   0.39951613       0.0025    4.2414391 0.0092015699    107.55232    5.6158478 
   99500    1044.6109   0.27629568     31.95479   0.39951613       0.0025    4.4773364 0.0090377577    107.76397    4.6798328 
   99600    1045.6259   0.27659687    31.984949   0.39951613       0.0025    5.3763075 0.0087137881    106.66962    3.7438723 
   99700    1046.6301   0.27623209    32.015941   0.39951613       0.0025    4.0479908 0.0097133739    110.04417    2.8078223 
   99800    1047.6379   0.27704547    32.045877   0.39951613       0.0025    4.5673261  0.010027418    110.23121    1.8718239 
   99900    1048.6753    0.2759118    32.078204   0.39951613       0.0025    3.6396962  0.010331023    108.48541    0.9358978 
  100000    1049.6865   0.27615682    32.109786   0.39951613       0.0025    4.0112767  0.010297348    105.39461            0 
Loop time of 935.911 on 4 procs for 100000 steps with 191540 atoms

Performance: 95061.507 tau/day, 106.848 timesteps/s
234.1% CPU use with 1 MPI tasks x 4 OpenMP threads

MPI task timing breakdown:
Section |  min time  |  avg time  |  max time  |%varavg| %total
---------------------------------------------------------------
Pair    | 372.44     | 372.44     | 372.44     |   0.0 | 39.79
Neigh   | 13.591     | 13.591     | 13.591     |   0.0 |  1.45
Comm    | 116.03     | 116.03     | 116.03     |   0.0 | 12.40
Output  | 3.1388     | 3.1388     | 3.1388     |   0.0 |  0.34
Modify  | 359.72     | 359.72     | 359.72     |   0.0 | 38.44
Other   |            | 70.99      |            |       |  7.59

Nlocal:    191540 ave 191540 max 191540 min
Histogram: 1 0 0 0 0 0 0 0 0 0
Nghost:    66926 ave 66926 max 66926 min
Histogram: 1 0 0 0 0 0 0 0 0 0
Neighs:    0 ave 0 max 0 min
Histogram: 1 0 0 0 0 0 0 0 0 0

Total # of neighbors = 0
Ave neighs/atom = 0
Neighbor list builds = 28252
Dangerous builds = 0

Please see the log.cite file for references relevant to this simulation

Total wall time: 0:16:15
