#package gpu 1
#suffix gpu
# variable rho equal 0.03

units lj
atom_style atomic

lattice fcc 0.975
Lattice spacing in x,y,z = 1.60085 1.60085 1.60085
region box block 0 60 0 30 0 30
create_box 2 box
Created orthogonal box = (0 0 0) to (96.0513 48.0256 48.0256)
  1 by 1 by 1 MPI processor grid
create_atoms 1 box
Created 216000 atoms
  Time spent = 0.0430012 secs
mass 1 4.0
mass 2 0.5


pair_style lj/cut 2.5
pair_coeff 1 1 1.0 1.0 2.5
pair_coeff 2 2 0.5 0.88 2.5
pair_coeff 1 2 0.2 1.0 2.5
#pair_coeff 1 2 1.5 0.8 2.5
pair_modify mix geometric
neigh_modify every 1 delay 0 check yes

variable R equal 12
region cylinder1 cylinder x $(0.5*ly) $(0.5*lz) $R EDGE EDGE units box
region cylinder1 cylinder x 24.012813670346833561 $(0.5*lz) $R EDGE EDGE units box
region cylinder1 cylinder x 24.012813670346833561 24.012813670346833561 $R EDGE EDGE units box
region cylinder1 cylinder x 24.012813670346833561 24.012813670346833561 12 EDGE EDGE units box

group cylinder1 region cylinder1
41820 atoms in group cylinder1
variable V equal PI*v_R*v_R*lx
# variable rho equal 0.1
variable natoms equal $V*${rho}
variable natoms equal 43452.5639148185*${rho}
variable natoms equal 43452.5639148185*0.10
variable natoms_in_cylinder equal count(cylinder1)
variable delete_fraction equal (${natoms_in_cylinder}-${natoms})/${natoms_in_cylinder}
variable delete_fraction equal (41820-${natoms})/${natoms_in_cylinder}
variable delete_fraction equal (41820-4345.25639148185)/${natoms_in_cylinder}
variable delete_fraction equal (41820-4345.25639148185)/41820
set group cylinder1 type 2
  41820 settings made for type
delete_atoms porosity cylinder1 ${delete_fraction} 12345
delete_atoms porosity cylinder1 0.89609621254228 12345
Deleted 37463 atoms, new total = 178537
#delete_atoms region cylinder1

region cylinder2 cylinder x $(0.5*ly) $(0.5*lz) $(v_R+6) EDGE EDGE units box
region cylinder2 cylinder x 24.012813670346833561 $(0.5*lz) $(v_R+6) EDGE EDGE units box
region cylinder2 cylinder x 24.012813670346833561 24.012813670346833561 $(v_R+6) EDGE EDGE units box
region cylinder2 cylinder x 24.012813670346833561 24.012813670346833561 18 EDGE EDGE units box
region cylinder3 cylinder x $(0.5*ly) $(0.5*lz) $(v_R+11) EDGE EDGE units box
region cylinder3 cylinder x 24.012813670346833561 $(0.5*lz) $(v_R+11) EDGE EDGE units box
region cylinder3 cylinder x 24.012813670346833561 24.012813670346833561 $(v_R+11) EDGE EDGE units box
region cylinder3 cylinder x 24.012813670346833561 24.012813670346833561 23 EDGE EDGE units box
group cylinder2 region cylinder2
58357 atoms in group cylinder2
group cylinder3 region cylinder3
118117 atoms in group cylinder3

group nve region cylinder3
118117 atoms in group nve
group langevin subtract cylinder3 cylinder2
59760 atoms in group langevin
group frozen subtract all cylinder3
60420 atoms in group frozen

region force cylinder x $(0.5*ly) $(0.5*lz) $(v_R-1) EDGE EDGE units box
region force cylinder x 24.012813670346833561 $(0.5*lz) $(v_R-1) EDGE EDGE units box
region force cylinder x 24.012813670346833561 24.012813670346833561 $(v_R-1) EDGE EDGE units box
region force cylinder x 24.012813670346833561 24.012813670346833561 11 EDGE EDGE units box
group inner dynamic all region cylinder1 every 1
dynamic group inner defined
#group gas dynamic all region force every 1
group gas type 2
4357 atoms in group gas

fix nve nve nve
fix langevin langevin langevin 0.50 0.50 1.0 12345 zero yes

variable gascount equal count(gas)

variable dP equal 0.001
variable measured_rho equal mass(gas)/(PI*(v_R-1)*(v_R-1)*lx)
variable force equal v_dP/v_measured_rho
variable force equal v_dP/v_rho

velocity all create 0.1 87287
velocity frozen set 0 0 0

compute chunk all chunk/atom bin/cylinder x lower $(lx) $(0.5*ly) $(0.5*lz) 0 $(v_R+5) 30 units box
compute chunk all chunk/atom bin/cylinder x lower 96.051254681387334244 $(0.5*ly) $(0.5*lz) 0 $(v_R+5) 30 units box
compute chunk all chunk/atom bin/cylinder x lower 96.051254681387334244 24.012813670346833561 $(0.5*lz) 0 $(v_R+5) 30 units box
compute chunk all chunk/atom bin/cylinder x lower 96.051254681387334244 24.012813670346833561 24.012813670346833561 0 $(v_R+5) 30 units box
compute chunk all chunk/atom bin/cylinder x lower 96.051254681387334244 24.012813670346833561 24.012813670346833561 0 17 30 units box

compute displacement nve displace/atom
compute mean_displacement nve reduce ave c_displacement[4]

compute vmax all reduce max vx
variable volume equal count(gas)/v_V

thermo_style custom step time temp c_mean_displacement v_volume v_force c_vmax dt spcpu cpuremain
thermo 100

compute keAtom all ke/atom
dump dump all custom 1000 trajectory.bin id type x y z c_keAtom

fix flow gas addforce v_force 0.0 0.0
run 5000
No /omp style for force computation currently active
Per MPI rank memory allocation (min/avg/max) = 85.96 | 85.96 | 85.96 Mbytes
Step Time Temp c_mean_displacement v_volume v_force c_vmax Dt S/CPU CPULeft 
       0            0    0.0662253            0   0.10027026         0.01   0.77516481        0.005            0            0 
     100          0.5  0.098894438   0.06698974   0.10027026         0.01    1.7432632        0.005    106.28234     46.10366 
     200            1   0.14610086   0.10685449   0.10027026         0.01    1.8715364        0.005      104.643    45.516506 
     300          1.5   0.17050188   0.14738006   0.10027026         0.01    2.2110566        0.005    104.73299    44.670837 
     400            2   0.18797595   0.18014328   0.10027026         0.01    2.3094533        0.005    105.07558    43.734799 
     500          2.5   0.20009369   0.20600419   0.10027026         0.01    2.4417613        0.005      105.468    42.760619 
     600            3   0.20815858   0.22450137   0.10027026         0.01    2.6455552        0.005    105.58947     41.78713 
     700          3.5   0.21411176   0.23406986   0.10027026         0.01    2.6176681        0.005     105.5992    40.820643 
     800            4   0.21916243   0.23543898   0.10027026         0.01    2.4935525        0.005     104.8107    39.896446 
     900          4.5   0.22629339   0.23048017   0.10027026         0.01    2.6339108        0.005    104.05492    38.997168 
    1000            5   0.23163362   0.22227876   0.10027026         0.01    2.5235547        0.005    103.68538    38.099236 
    1100          5.5   0.23770634   0.21360154   0.10027026         0.01    2.6845293        0.005    102.62811    37.224444 
    1200            6   0.24108554   0.20725462   0.10027026         0.01    2.5591805        0.005    104.18762    36.286862 
    1300          6.5   0.24418216   0.20436518   0.10027026         0.01    2.6782167        0.005    104.81279    35.329567 
    1400            7   0.24734444   0.20577167   0.10027026         0.01    2.9186495        0.005    104.06974    34.390247 
    1500          7.5   0.25048417   0.21109381   0.10027026         0.01    3.1523998        0.005    104.47389    33.439378 
    1600            8   0.25378117   0.21736379   0.10027026         0.01    2.7455267        0.005    104.11417    32.494748 
    1700          8.5   0.25719981   0.22419838   0.10027026         0.01    2.5479059        0.005    102.64843    31.574876 
    1800            9   0.26108793   0.23092253   0.10027026         0.01    2.9169316        0.005    102.78623    30.646645 
    1900          9.5    0.2645993   0.23645129   0.10027026         0.01    2.6867714        0.005    104.39734    29.689215 
    2000           10   0.26909757   0.24186189   0.10027026         0.01    2.8772297        0.005    103.48944    28.744349 
    2100         10.5   0.27218202   0.24726436   0.10027026         0.01    3.0525669        0.005    102.85865    27.805624 
    2200           11   0.27667118   0.25357274   0.10027026         0.01    3.5854116        0.005    103.83614    26.852206 
    2300         11.5   0.27865369   0.26127766   0.10027026         0.01    2.9243856        0.005    102.86785    25.908594 
    2400           12   0.28159313   0.27053948   0.10027026         0.01    3.0107881        0.005    103.96988    24.951443 
    2500         12.5   0.28320985   0.27906348   0.10027026         0.01    2.6499039        0.005    103.95581    23.994048 
    2600           13    0.2844688   0.28680739   0.10027026         0.01    2.9448548        0.005    104.97751    23.027662 
    2700         13.5   0.28516441   0.29306902   0.10027026         0.01    2.8495533        0.005    103.56278    22.073382 
    2800           14    0.2859429   0.29819644   0.10027026         0.01    3.4118047        0.005    104.68497    21.110161 
    2900         14.5   0.28891382   0.30168325   0.10027026         0.01    3.3218168        0.005    103.47573    20.155574 
    3000           15   0.29082117   0.30401895   0.10027026         0.01    3.4366502        0.005    103.92678    19.197402 
    3100         15.5   0.29127183   0.30619694   0.10027026         0.01    2.9803018        0.005    103.46376    18.241609 
    3200           16   0.29217959   0.30835139   0.10027026         0.01    3.2525543        0.005    102.96083    17.287801 
    3300         16.5   0.29491788   0.31095968   0.10027026         0.01    3.1400961        0.005    103.97942    16.328035 
    3400           17   0.29519241   0.31445496   0.10027026         0.01    2.9026882        0.005    103.55869    15.369993 
    3500         17.5   0.29734212    0.3180002   0.10027026         0.01    3.0563863        0.005    104.18674    14.409021 
    3600           18   0.29698942   0.32265203   0.10027026         0.01    3.5635974        0.005     103.4446    13.450792 
    3700         18.5   0.29893335   0.32702809   0.10027026         0.01     3.562299        0.005    104.77567    12.487789 
    3800           19   0.30015684   0.33191623   0.10027026         0.01    3.5712753        0.005    104.28463    11.526658 
    3900         19.5   0.30114933   0.33743272   0.10027026         0.01    3.5812753        0.005    103.31518    10.568178 
    4000           20   0.30202811   0.34312812   0.10027026         0.01    3.5924259        0.005    102.84765     9.610327 
    4100         20.5   0.30407928    0.3486498   0.10027026         0.01    3.6034924        0.005    102.33676    8.6528355 
    4200           21   0.30572577   0.35444887   0.10027026         0.01    3.5610353        0.005    104.44595    7.6906489 
    4300         21.5   0.30669072   0.36037834   0.10027026         0.01    3.6171528        0.005    104.46679    6.7286522 
    4400           22   0.30829341   0.36691427   0.10027026         0.01    3.4141626        0.005    102.42145    5.7694782 
    4500         22.5   0.30884478   0.37350035   0.10027026         0.01    3.3136587        0.005     103.0198    4.8089104 
    4600           23   0.30852364   0.37951326   0.10027026         0.01    3.1673307        0.005    104.26237    3.8468968 
    4700         23.5   0.30889252    0.3852116   0.10027026         0.01    3.1760208        0.005    104.14887     2.885073 
    4800           24   0.31044601   0.39028122   0.10027026         0.01    3.4747831        0.005    104.50969    1.9231803 
    4900         24.5   0.31124051   0.39514843   0.10027026         0.01    3.6247626        0.005    104.61695   0.96147333 
    5000           25    0.3116794   0.40016332   0.10027026         0.01    3.6225825        0.005     103.7268            0 
Loop time of 48.0763 on 4 procs for 5000 steps with 178537 atoms

Performance: 44928.601 tau/day, 104.001 timesteps/s
219.1% CPU use with 1 MPI tasks x 4 OpenMP threads

MPI task timing breakdown:
Section |  min time  |  avg time  |  max time  |%varavg| %total
---------------------------------------------------------------
Pair    | 16.944     | 16.944     | 16.944     |   0.0 | 35.24
Neigh   | 0.341      | 0.341      | 0.341      |   0.0 |  0.71
Comm    | 4.3531     | 4.3531     | 4.3531     |   0.0 |  9.05
Output  | 0.15931    | 0.15931    | 0.15931    |   0.0 |  0.33
Modify  | 22.943     | 22.943     | 22.943     |   0.0 | 47.72
Other   |            | 3.336      |            |       |  6.94

Nlocal:    178537 ave 178537 max 178537 min
Histogram: 1 0 0 0 0 0 0 0 0 0
Nghost:    66913 ave 66913 max 66913 min
Histogram: 1 0 0 0 0 0 0 0 0 0
Neighs:    0 ave 0 max 0 min
Histogram: 1 0 0 0 0 0 0 0 0 0

Total # of neighbors = 0
Ave neighs/atom = 0
Neighbor list builds = 550
Dangerous builds = 0

reset_timestep 0
fix vx all ave/chunk 10 10000 100000 chunk vx ave running file velocity.txt

fix dt all dt/reset 10 NULL NULL 0.05 units box

run 100000
No /omp style for force computation currently active
Per MPI rank memory allocation (min/avg/max) = 95.34 | 95.34 | 95.34 Mbytes
Step Time Temp c_mean_displacement v_volume v_force c_vmax Dt S/CPU CPULeft 
       0           25    0.3116794   0.40016332   0.10027026         0.01    3.6225825  0.011908788            0            0 
     100    26.288395   0.31262273    0.4119909   0.10027026         0.01    3.6652209  0.011260636    88.041572    1134.6922 
     200    27.479584   0.31287967   0.42254887   0.10027026         0.01    3.9074278  0.010968607     88.41304    1131.1747 
     300    28.650559   0.31460836   0.43488224   0.10027026         0.01    3.6061191  0.011965515    89.757648    1123.6167 
     400    29.834814   0.31565404   0.44848846   0.10027026         0.01    4.0105618  0.011475634    88.244827     1124.037 
     500    31.067554   0.31626351   0.46310582   0.10027026         0.01    3.3944828  0.011532425    88.589659     1122.958 
     600    32.240542   0.31717963   0.47623991   0.10027026         0.01    3.6382267  0.011654189     89.10526    1120.7802 
     700    33.397414    0.3193378   0.48959709   0.10027026         0.01    3.7568249  0.011024654    87.981791     1120.937 
     800    34.570764    0.3209942   0.50324634   0.10027026         0.01    3.6935558  0.012557536    89.095512    1119.0086 
     900    35.762939   0.32062609   0.51627998   0.10027026         0.01     4.243251  0.011527365    88.229624    1118.4722 
    1000    36.907532   0.32172086   0.52816296   0.10027026         0.01    3.7081489   0.01130068    88.242952    1117.7995 
    1100    38.014051   0.32244639   0.54029671   0.10027026         0.01    3.6223305  0.010469461    87.368064    1118.0633 
    1200    39.053783   0.32194102   0.55181344   0.10027026         0.01    4.2861925   0.01087382    88.749424    1116.6257 
    1300    40.167548   0.32142567   0.56408636   0.10027026         0.01    3.9255779  0.011758393     88.34717    1115.6253 
    1400      41.3366   0.32280374   0.57671553   0.10027026         0.01    3.6266627  0.010455917    89.364956    1113.6983 
    1500    42.464203    0.3227597   0.58899038   0.10027026         0.01    3.7061934  0.011795982    89.239979    1111.9819 
    1600    43.611807   0.32509522    0.6013175   0.10027026         0.01    3.9292711  0.011556877    88.820503    1110.6654 
    1700    44.787139   0.32397187   0.61344328   0.10027026         0.01    3.6655088  0.011465074    88.468892    1109.6301 
    1800    45.929898   0.32395939   0.62547309   0.10027026         0.01    4.0005607  0.012069562    88.593102    1108.4978 
    1900    47.126304   0.32418179   0.63836994   0.10027026         0.01    4.0153406   0.01180261    88.653099    1107.3264 
    2000    48.299411   0.32412194   0.65154495   0.10027026         0.01    3.7359339  0.011548713     87.57833    1106.8377 
    2100    49.490831    0.3238151   0.66409406   0.10027026         0.01    4.0994706  0.011556287     88.83512    1105.5337 
    2200    50.572947   0.32495606   0.67573456   0.10027026         0.01    4.5086791  0.010594123    88.953965    1104.1789 
    2300    51.647962   0.32528455   0.68790562   0.10027026         0.01    4.4437901  0.010787829    89.786201    1102.4017 
    2400    52.705177   0.32442783   0.70003043   0.10027026         0.01    4.3794066  0.010851015    88.511066    1101.3323 
    2500    53.806682   0.32656378   0.71289532   0.10027026         0.01    3.9042752  0.010110927    89.207504     1099.914 
    2600    54.860427   0.32562053   0.72579263   0.10027026         0.01    3.4704773 0.0097696384    89.085029    1098.5763 
    2700    55.960434   0.32524785   0.73921352   0.10027026         0.01    3.7832552  0.011724751     88.09938    1097.7072 
    2800    57.121573   0.32659586   0.75265179   0.10027026         0.01    3.6384135  0.012625738    89.157386    1096.3514 
    2900    58.334351   0.32622891   0.76780647   0.10027026         0.01    3.6722323   0.01182829    88.097345    1095.4637 
    3000    59.463645    0.3282583   0.78136296   0.10027026         0.01    3.4845849  0.010800136    86.305109    1095.3217 
    3100     60.61269   0.32744526   0.79631454   0.10027026         0.01     3.949041  0.012054944    88.115649    1094.3698 
    3200    61.780948   0.32771207   0.81062568   0.10027026         0.01    3.7672106  0.011157814    87.225037    1093.7571 
    3300    62.926666   0.32731677   0.82487533   0.10027026         0.01     3.642244  0.011831265     88.30677    1092.7005 
    3400    64.084856   0.32735634   0.83962008   0.10027026         0.01    3.6556188  0.011092203    87.119774    1092.0778 
    3500    65.218425   0.32818589   0.85364605   0.10027026         0.01    3.8346364  0.011491566    88.506154    1090.9294 
    3600    66.386573   0.32824159   0.86888294   0.10027026         0.01    4.5184883  0.010629698    88.959267    1089.6278 
    3700    67.576054   0.32878251   0.88397682   0.10027026         0.01    4.1003089  0.012067093    89.415041    1088.1868 
    3800    68.759622   0.32773336   0.89842776   0.10027026         0.01    3.4546757  0.010810769    89.084556    1086.8677 
    3900    69.859337   0.32833615   0.91038142   0.10027026         0.01    3.7538954 0.0099006849    89.680307     1085.375 
    4000    70.851191   0.32883955   0.92210026   0.10027026         0.01    4.1630761 0.0099315722    87.958322    1084.4251 
    4100    71.868768   0.32804209   0.93407543   0.10027026         0.01    3.9468927  0.011171629    86.912621     1083.786 
    4200    73.004873     0.328761    0.9474461   0.10027026         0.01    3.9282493  0.011802407    89.807002    1082.2768 
    4300    74.140114   0.32907581   0.96026253   0.10027026         0.01    3.9202796  0.011210024    87.917096    1081.3186 
    4400    75.245624   0.32927279    0.9737284   0.10027026         0.01    3.8789853  0.010514491    88.508825    1080.1871 
    4500    76.361929   0.32962005     0.987445   0.10027026         0.01    3.9444304   0.01138723    89.039263    1078.9128 
    4600    77.484497   0.32955667    1.0017566   0.10027026         0.01    3.6334496  0.011672928    88.774783    1077.7145 
    4700    78.608141   0.32849246    1.0154031   0.10027026         0.01    3.7880212  0.010805987    86.720864    1077.0602 
    4800    79.658177   0.32930279    1.0280825   0.10027026         0.01    3.4140471  0.011386783    88.747133     1075.863 
    4900    80.835492   0.32947348    1.0423293   0.10027026         0.01    4.4186327  0.011072469    88.070429    1074.8367 
    5000    81.956645   0.33033721    1.0564484   0.10027026         0.01    4.2706287  0.011010095    86.479675    1074.2028 
    5100     83.03322   0.32991337    1.0694988   0.10027026         0.01    3.5362592  0.010985818    86.619157    1073.5138 
    5200     84.11524    0.3299148    1.0827067   0.10027026         0.01    3.7772239  0.010695993    87.537917     1072.586 
    5300    85.128336   0.32968775    1.0948109   0.10027026         0.01    3.7393657  0.010289641    87.932745    1071.5584 
    5400    86.185989   0.32972354    1.1079612   0.10027026         0.01    3.7378837  0.011845212    88.376601    1070.4268 
    5500    87.291281   0.33040477    1.1207356   0.10027026         0.01    3.6017034  0.010723144    87.772818    1069.4288 
    5600    88.392246   0.32938804    1.1340762   0.10027026         0.01     3.492287  0.010680763    87.065232    1068.5819 
    5700    89.449522     0.328167    1.1479879   0.10027026         0.01    3.9119704  0.010550273    88.482591    1067.4201 
    5800    90.485793   0.33195416    1.1601758   0.10027026         0.01    3.9542332  0.010892579    88.041794    1066.3512 
    5900    91.583735   0.33061465     1.174367   0.10027026         0.01    3.6226473  0.011870996     88.86868    1065.1115 
    6000    92.685226   0.32933587    1.1880783   0.10027026         0.01    4.1706845  0.011484688    86.174726    1064.4267 
    6100    93.810858   0.33134555    1.2010991   0.10027026         0.01    3.9698845  0.011190474    88.473968    1063.2621 
    6200    94.819327   0.33020191    1.2135548   0.10027026         0.01    5.4573651 0.0091446554    87.762405    1062.2373 
    6300    95.791857   0.33068114    1.2249336   0.10027026         0.01    3.8924914  0.010429453    88.286193    1061.1083 
    6400    96.822182   0.33086992    1.2370826   0.10027026         0.01     3.824155   0.01014296    88.158617    1060.0031 
    6500    97.831364   0.32991944    1.2485838   0.10027026         0.01     4.120993  0.010378759    87.382498     1059.042 
    6600    98.853434   0.33141076    1.2594692   0.10027026         0.01    3.8222093  0.011478093     87.65947    1058.0241 
    6700    99.950084   0.33184337    1.2722487   0.10027026         0.01    4.2938302  0.010251357    88.373026    1056.8744 
    6800    100.99171   0.33116543    1.2852903   0.10027026         0.01    4.1891547  0.010542112    87.324354    1055.9113 
    6900    102.05333    0.3320855    1.2977753   0.10027026         0.01    3.7222111   0.01130041    88.030725    1054.8191 
    7000    103.13221   0.33214264    1.3105081   0.10027026         0.01    3.6511065  0.010018218    86.642937    1053.9673 
    7100    104.20587   0.33092383    1.3226733   0.10027026         0.01    4.1277732  0.010696172    88.024074      1052.87 
    7200    105.19932   0.33097006    1.3344949   0.10027026         0.01    4.4974372 0.0096908319     88.42523    1051.7053 
    7300    106.16971   0.33176842    1.3459136   0.10027026         0.01    3.7782903 0.0098464801    88.438431    1050.5393 
    7400    107.13302   0.33112958    1.3580451   0.10027026         0.01    3.5809519  0.011670623    87.089583    1049.5934 
    7500    108.26707   0.32950244    1.3725201   0.10027026         0.01    3.5621322  0.011950171    87.513333    1048.5736 
    7600    109.35178      0.33117    1.3855974   0.10027026         0.01    4.1366945  0.010153539    88.024444    1047.4698 
    7700    110.36232   0.33196935    1.3970114   0.10027026         0.01    4.0402413 0.0099640674    88.018957    1046.3661 
    7800    111.43742   0.33114044    1.4093292   0.10027026         0.01    3.7712249  0.011310876    89.250575    1045.0762 
    7900    112.56792   0.33083564    1.4218825   0.10027026         0.01    3.7936259  0.011326049    88.197101    1043.9466 
    8000    113.61485   0.33145146    1.4333058   0.10027026         0.01     3.782415  0.011336391    86.654966     1043.049 
    8100    114.70233    0.3319657    1.4447433   0.10027026         0.01    4.1114241  0.010763171    86.351911     1042.191 
    8200    115.78529    0.3321401    1.4568309   0.10027026         0.01    4.3780564  0.010922375    87.949192    1041.0902 
    8300    116.89851   0.33120161    1.4696349   0.10027026         0.01    4.0881923  0.010777509    87.909707    1039.9942 
    8400    117.98134   0.33156811     1.480903   0.10027026         0.01    4.3070537  0.010951092    88.096253    1038.8709 
    8500     119.0714   0.33264301     1.492901   0.10027026         0.01    4.1750967  0.010766404    88.199049    1037.7331 
    8600    120.12306   0.33101733    1.5046527   0.10027026         0.01      4.15674  0.010236256     87.04402    1036.7553 
    8700    121.17853   0.33105293    1.5165579   0.10027026         0.01    4.1052428  0.011695235    88.084227    1035.6312 
    8800    122.33412   0.33168508    1.5298374   0.10027026         0.01    3.8688124  0.011060451    86.791405    1034.6821 
    8900    123.43465   0.33189037    1.5420896   0.10027026         0.01    3.8331426  0.011209509    87.285011    1033.6617 
    9000    124.55614   0.33130775    1.5548638   0.10027026         0.01    3.7516288  0.011671712    86.322764    1032.7677 
    9100    125.68352   0.33138218    1.5682489   0.10027026         0.01    4.5412677  0.010393773    87.223568    1031.7484 
    9200    126.76137   0.33162637    1.5799667   0.10027026         0.01    4.5367208  0.010762879    89.396917    1030.4512 
    9300    127.78619    0.3304061    1.5911608   0.10027026         0.01    4.1931372  0.011476768    89.206612    1029.1811 
    9400    128.84251   0.33118345    1.6033762   0.10027026         0.01    4.6580812  0.010523321    87.317937    1028.1479 
    9500    129.96254   0.33194258    1.6161759   0.10027026         0.01    3.6085142  0.010781063    87.535396    1027.0852 
    9600    131.08373   0.33234393    1.6282819   0.10027026         0.01     3.879143   0.00945825    87.749406    1025.9946 
    9700    132.09498   0.33153063    1.6396146   0.10027026         0.01    4.2334025   0.01099571    88.314877    1024.8351 
    9800    133.15523   0.33198465    1.6510249   0.10027026         0.01    4.7164674  0.010345352    88.022208    1023.7108 
    9900    134.24435   0.33262991    1.6632932   0.10027026         0.01    4.0026388  0.010969095    88.559357    1022.5236 
   10000    135.33722   0.33266512    1.6756025   0.10027026         0.01    3.7868067  0.010561471    86.941031    1021.5267 
   10100    136.39609   0.33136697    1.6883436   0.10027026         0.01    4.2338248  0.010018927    87.650017    1020.4439 
   10200    137.51295   0.33218736    1.7016975   0.10027026         0.01    3.9541176  0.011133942    87.870608    1019.3348 
   10300     138.5868   0.33220044    1.7142613   0.10027026         0.01    4.8610219  0.009925911    88.320977    1018.1746 
   10400    139.62239   0.33205974    1.7270348   0.10027026         0.01    4.4244447 0.0097250261    89.305571    1016.9073 
   10500    140.63522   0.33098396    1.7401734   0.10027026         0.01    4.2606613  0.010145426    88.450087    1015.7352 
   10600    141.68115   0.33249289    1.7528954   0.10027026         0.01    4.0260299  0.010012605    86.491944    1014.7798 
   10700    142.65643   0.33161012    1.7640935   0.10027026         0.01    4.3270887 0.0096219446    87.421839    1013.7179 
   10800    143.62575   0.33213883    1.7747588   0.10027026         0.01    3.8211827  0.010069796    87.754399    1012.6188 
   10900    144.66648   0.33158004    1.7875616   0.10027026         0.01    3.9046759  0.010827974    87.965295    1011.4966 
   11000    145.73667   0.33267081     1.799627   0.10027026         0.01    4.0811428   0.01033514    87.283194    1010.4459 
   11100    146.80862   0.33239367    1.8120503   0.10027026         0.01    4.2339311  0.011078479     87.66361    1009.3538 
   11200     147.9101   0.33185296    1.8255458   0.10027026         0.01    3.6630683  0.010954129    87.120914    1008.3171 
   11300    148.97483    0.3319806    1.8366996   0.10027026         0.01    4.1480348  0.010756377    88.361409     1007.152 
   11400    150.03631   0.33245673    1.8500669   0.10027026         0.01    3.7704272  0.010598359    87.981772    1006.0254 
   11500    151.10347   0.33292474    1.8627152   0.10027026         0.01    3.6408257  0.010845749    88.165844    1004.8803 
   11600    152.20014   0.33343099    1.8738044   0.10027026         0.01    4.4628251  0.011063605    88.394034    1003.7132 
   11700    153.33355   0.33359258    1.8861869   0.10027026         0.01    4.1116422  0.010850905    87.599511    1002.6241 
   11800    154.43078   0.33409163    1.8972106   0.10027026         0.01    3.5879894  0.010241338    87.495716    1001.5442 
   11900    155.48927   0.33061288    1.9088596   0.10027026         0.01     4.016475 0.0092463228    87.940156    1000.4205 
   12000    156.48716   0.33137948    1.9190533   0.10027026         0.01     3.970847   0.01108184    87.180383    999.36925 
   12100    157.58552   0.33184635    1.9309848   0.10027026         0.01    3.9601661  0.011294222    87.887216     998.2494 
   12200    158.70499   0.33128012    1.9442085   0.10027026         0.01    4.0251029  0.011072739    87.774729    997.13976 
   12300     159.7962   0.33193035    1.9567038   0.10027026         0.01    4.7066475  0.010002607    87.634121    996.04265 
   12400    160.84898   0.33212634    1.9680663   0.10027026         0.01    4.2606373  0.010286799    88.562443    994.86036 
   12500    161.90371   0.33298136    1.9789869   0.10027026         0.01    3.8782534  0.010223486    88.594992      993.676 
   12600    162.97044   0.33368438    1.9900305   0.10027026         0.01    3.8274217   0.01069897    88.398953    992.50988 
   12700    163.99732   0.33368016    2.0012925   0.10027026         0.01    4.2874232  0.010094118    87.413512    991.43199 
   12800    165.00604   0.33324787    2.0126758   0.10027026         0.01    4.0136738  0.010912206    87.790363     990.3196 
   12900    166.05304   0.33398068     2.023222   0.10027026         0.01    4.5986373 0.0098815433    87.291114    989.25078 
   13000    167.07857   0.33285397    2.0346624   0.10027026         0.01     3.956167  0.010115065    86.900682    988.21523 
   13100    168.17785   0.33203261    2.0468658   0.10027026         0.01     3.988015   0.01159393    88.579612    987.03324 
   13200    169.30064   0.33239282    2.0586206   0.10027026         0.01    3.8974343  0.010873196    87.205016    985.96906 
   13300    170.37363   0.33292532    2.0698456   0.10027026         0.01     4.251432  0.010334099    88.178596    984.82112 
   13400    171.49167   0.33267103    2.0829311   0.10027026         0.01    3.8433348  0.011177769    88.472251    983.64904 
   13500    172.53569   0.33267834    2.0951756   0.10027026         0.01    3.9852509 0.0096501114    88.286732    982.49282 
   13600    173.57173   0.33297978    2.1057801   0.10027026         0.01    4.7416526  0.010359109    86.638821     981.4738 
   13700    174.64978    0.3326654     2.116682   0.10027026         0.01    4.0438182  0.010979912    88.013749    980.33923 
   13800     175.7316   0.33256412    2.1284144   0.10027026         0.01    4.1102752  0.010259294    88.811532    979.14088 
   13900    176.80269   0.33331944    2.1386403   0.10027026         0.01    3.8241207  0.011296675    88.029099    978.00556 
   14000    177.89833   0.33380087    2.1498232   0.10027026         0.01    4.0087205  0.011701226    87.342884    976.92507 
   14100    179.03747     0.332127    2.1621692   0.10027026         0.01    4.0560181  0.010379296    86.401006    975.91969 
   14200    180.09139   0.33260191    2.1730187   0.10027026         0.01    4.1044429  0.011157277    87.366153    974.83492 
   14300     181.1375   0.33297417    2.1843874   0.10027026         0.01    3.9615824  0.010000249    87.164493    973.76518 
   14400     182.1712   0.33316185    2.1954102   0.10027026         0.01     3.765172  0.011037256     88.95206    972.55731 
   14500    183.14165   0.33163729    2.2062116   0.10027026         0.01    3.6690494 0.0094603319    87.999124    971.42238 
   14600    184.07646   0.33034063    2.2175383   0.10027026         0.01    3.4467442 0.0095764086    87.328918    970.33845 
   14700    185.14053   0.33206554     2.229507   0.10027026         0.01    4.1895586  0.011421263    87.903904    969.21022 
   14800    186.24451   0.33208856    2.2414164   0.10027026         0.01    4.1302108   0.01079579    87.907607    968.08159 
   14900    187.26825   0.33268216    2.2526501   0.10027026         0.01    4.1074042 0.0099029028    86.751858    967.03939 
   15000    188.25069   0.33235067    2.2636358   0.10027026         0.01    4.4263657 0.0097327909    87.385939    965.94833 
   15100     189.2481   0.33338709    2.2750589   0.10027026         0.01    4.2142031  0.010034322    87.479949    964.84964 
   15200     190.2353   0.33207861    2.2867586   0.10027026         0.01    4.6441978 0.0099464377     88.07631    963.70718 
   15300    191.21154   0.33259033    2.2977892   0.10027026         0.01    5.3158365 0.0093991869     87.93033    962.57526 
   15400    192.26524   0.33271343    2.3096647   0.10027026         0.01    3.6805753  0.011354214    88.528011    961.40109 
   15500    193.38578   0.33256565    2.3220859   0.10027026         0.01    3.9425526  0.011366485    88.138591     960.2547 
   15600    194.54353   0.33354093    2.3349932   0.10027026         0.01    4.2317763   0.01014492     88.25127    959.10062 
   15700    195.61984   0.33397668    2.3457919   0.10027026         0.01    3.8976509  0.011522851    88.018496     957.9629 
   15800    196.63742   0.33178157    2.3562222   0.10027026         0.01    4.1840582  0.010596524    88.106264    956.81917 
   15900    197.65762   0.33171957    2.3662419   0.10027026         0.01    3.7316796  0.010920855    88.000896    955.68274 
   16000    198.77178   0.33308756    2.3771544   0.10027026         0.01    3.8051728  0.011693743    87.287463    954.59507 
   16100    199.91688   0.33308114    2.3886762   0.10027026         0.01    3.9467294  0.011381621    85.899953    953.60311 
   16200    201.02905    0.3327715    2.4003883   0.10027026         0.01    3.8710258  0.010470537    87.717988    952.48422 
   16300     202.1406   0.33292149    2.4119596   0.10027026         0.01    3.7438626  0.009653014    88.411456    951.31915 
   16400    203.24566   0.33331209    2.4236779   0.10027026         0.01     4.168754   0.01087656    87.679773    950.20261 
   16500    204.26367   0.33211081    2.4362826   0.10027026         0.01    3.8181695   0.01010626    87.557854    949.09382 
   16600    205.30383   0.33177591    2.4483412   0.10027026         0.01    3.8477252  0.010444694    86.700876    948.04134 
   16700    206.34863   0.33225983    2.4596793   0.10027026         0.01    3.9562108  0.010729349    88.944232    946.84255 
   16800     207.4073   0.33266667     2.471105   0.10027026         0.01    4.8283512 0.0097682054    86.539092    945.79939 
   16900    208.42805    0.3328956    2.4818584   0.10027026         0.01    3.9146428  0.011065504    87.594974    944.68641 
   17000    209.49859   0.33178136    2.4931902   0.10027026         0.01    3.8882698 0.0099767735     87.10331    943.60456 
   17100    210.52252   0.33201726    2.5036435   0.10027026         0.01     3.897565  0.010393186    87.322827    942.50794 
   17200    211.56019   0.33194054    2.5152741   0.10027026         0.01    4.0414677  0.010940497    88.160637    941.35836 
   17300    212.65147   0.33361956    2.5263678   0.10027026         0.01    3.5184702  0.010836654    87.354017    940.25903 
   17400    213.68325   0.33290747    2.5369113   0.10027026         0.01    4.2983573  0.010531935    88.855558    939.06735 
   17500    214.75108   0.33161581    2.5482789   0.10027026         0.01    4.3853139  0.010999531    88.080583     937.9231 
   17600    215.81956   0.33265697    2.5586765   0.10027026         0.01    3.9554627  0.010458693     88.13609    936.77561 
   17700    216.90274   0.33260706    2.5692199   0.10027026         0.01    3.9182584   0.01100244    88.722334     935.5934 
   17800    217.98539   0.33153871    2.5809604   0.10027026         0.01    4.5087861  0.010422995    87.600499    934.47847 
   17900    219.04795    0.3325961      2.59228   0.10027026         0.01    3.8815273 0.0097867191    87.990835    933.34002 
   18000    220.10017   0.33318978     2.603508   0.10027026         0.01    3.7094427  0.010730256     86.97929    932.26179 
   18100    221.16179   0.33298045    2.6156684   0.10027026         0.01    3.9765161  0.011010017    87.489602    931.15244 
   18200    222.25049   0.33283584    2.6274777   0.10027026         0.01    4.0509238  0.010933282     87.40639     930.0476 
   18300    223.35734   0.33203638    2.6394269   0.10027026         0.01    3.9571238  0.011422458    87.938995    928.91141 
   18400    224.46933   0.33283079    2.6517682   0.10027026         0.01    3.6655088  0.011043886    88.537186    927.74112 
   18500    225.55903   0.33286929    2.6631728   0.10027026         0.01    3.4595844   0.01039175    88.372635    926.58055 
   18600    226.59457   0.33262744    2.6745941   0.10027026         0.01    4.3689996  0.010993365     89.04656    925.38281 
   18700    227.68067   0.33147787     2.686691   0.10027026         0.01    4.0448417  0.010752057    87.516546    924.27122 
   18800    228.75118   0.33135025    2.6986137   0.10027026         0.01    4.1045388  0.010491379    87.690845    923.14949 
   18900    229.85298   0.33058619    2.7110633   0.10027026         0.01    3.9442673  0.011261678    88.425211    921.98693 
   19000    231.00134   0.33234779    2.7235197   0.10027026         0.01    3.8473022  0.011365458    88.829438    920.80276 
   19100    232.08793   0.33212998    2.7351533   0.10027026         0.01    4.5278099  0.010194672    88.369358    919.64403 
   19200    233.10729   0.33313837    2.7459814   0.10027026         0.01    4.4711836  0.010093429    87.738227    918.51984 
   19300    234.14222   0.33265666    2.7567001   0.10027026         0.01    3.7417565  0.010729726    88.811758    917.33787 
   19400    235.23735   0.33268253    2.7689506   0.10027026         0.01    4.0672542  0.011193427    87.991924    916.20008 
   19500    236.32506   0.33076753    2.7813189   0.10027026         0.01    3.7409274  0.010468081     85.28945    915.21095 
   19600    237.41786   0.33084521    2.7932115   0.10027026         0.01    3.9584376  0.010758823    86.202284    914.16902 
   19700    238.42033   0.33217486    2.8046844   0.10027026         0.01    4.3743768 0.0095436129    85.806568     913.1477 
   19800    239.44072   0.33221855    2.8167201   0.10027026         0.01    3.6883843  0.010185271    85.427221    912.14588 
   19900    240.49937   0.33242667    2.8272233   0.10027026         0.01    4.2709702  0.010238847    86.672085     911.0747 
   20000    241.46839   0.33137055    2.8381727   0.10027026         0.01    3.9538798 0.0089083662    86.400116    910.01721 
   20100    242.52136    0.3308976    2.8506373   0.10027026         0.01    4.0327161  0.010600257    85.127684     909.0275 
   20200    243.62384   0.33134262    2.8633207   0.10027026         0.01    3.3555907  0.010994392    88.912669    907.83841 
   20300    244.75287    0.3319436    2.8760371   0.10027026         0.01    3.6754141  0.011314818    87.374252     906.7277 
   20400    245.86659   0.33254698    2.8887562   0.10027026         0.01    4.2585098  0.010927795     88.40076     905.5648 
   20500     246.9234   0.33187839    2.9011909   0.10027026         0.01    3.6830023  0.010969989    88.572785    904.39369 
   20600    248.03699   0.33207564     2.913721   0.10027026         0.01    3.9689023  0.010982776    88.166697    903.24304 
   20700    249.11441   0.33237081    2.9258669   0.10027026         0.01    3.8870468  0.010517355    88.372412    902.08242 
   20800    250.16796   0.33127442    2.9373277   0.10027026         0.01    3.5971573  0.010542395    89.387544    900.87316 
   20900    251.14453   0.33313167    2.9482398   0.10027026         0.01    4.4090137  0.010857331    88.133368    899.72501 
   21000    252.21976   0.33193411    2.9602207   0.10027026         0.01    3.6992692  0.011576105    87.297292    898.61787 
   21100    253.33514   0.33117814     2.971866   0.10027026         0.01    3.6573725  0.011248068    88.423496    897.45582 
   21200    254.46961   0.33266926    2.9832341   0.10027026         0.01    3.5008284  0.010154735    87.359675    896.34525 
   21300    255.55273   0.33227392    2.9946028   0.10027026         0.01    3.7622005  0.011009197    88.602834      895.175 
   21400    256.63589   0.33306306    3.0060914   0.10027026         0.01    3.8867567  0.010530059    88.466149    894.01156 
   21500    257.68235   0.33139416    3.0168223   0.10027026         0.01    3.8040591  0.011519456    87.932726    892.87346 
   21600    258.76729   0.33124439    3.0283949   0.10027026         0.01    4.0116752   0.01016078    88.610134    891.70382 
   21700    259.87497   0.33166028    3.0407868   0.10027026         0.01    3.8111828  0.011614296    87.368228    890.59243 
   21800    261.01574   0.33006652    3.0528726   0.10027026         0.01    3.6391722  0.011835479    89.296064     889.3921 
   21900    262.09455   0.33200083     3.064827   0.10027026         0.01    3.7843978  0.010522153    88.825657    888.21366 
   22000    263.13154   0.33008512    3.0766069   0.10027026         0.01    4.1145802  0.010311279    86.641595     887.1363 
   22100    264.13933   0.33154239    3.0882489   0.10027026         0.01    4.0750947   0.01017331    89.344416    885.93518 
   22200    265.17024   0.33250064    3.1002387   0.10027026         0.01    3.5884069  0.010224786    88.812397     884.7583 
   22300    266.19682   0.33191356    3.1112921   0.10027026         0.01    4.1539907 0.0096230069    89.042911    883.57171 
   22400    267.27733   0.33121976    3.1234828   0.10027026         0.01    3.5624564  0.011138698    89.661021    882.35888 
   22500    268.37702    0.3315953    3.1366045   0.10027026         0.01    3.5059784    0.0111485    89.298631    881.16249 
   22600    269.39378   0.33209461    3.1480424   0.10027026         0.01     3.918583  0.011140855    87.367136    880.05158 
   22700    270.47099   0.33175421    3.1600163   0.10027026         0.01    3.6380343  0.011450769     88.08308    878.90868 
   22800    271.57392   0.33141478    3.1727528   0.10027026         0.01    4.0064621  0.010208738    87.571875    877.78829 
   22900    272.58057   0.33051663     3.183415   0.10027026         0.01    3.9117127 0.0098263738    87.414041    876.67466 
   23000    273.45886   0.33180023    3.1937718   0.10027026         0.01    3.8742682 0.0095206424    87.159114    875.57196 
   23100    274.42526   0.33252304    3.2046522   0.10027026         0.01    4.8887783 0.0099623963    87.992459    874.43271 
   23200    275.40875   0.33164048    3.2157164   0.10027026         0.01    4.7320531  0.010434519    88.311753    873.27988 
   23300    276.41634   0.33144807    3.2274227   0.10027026         0.01    3.7038588  0.010846525    87.807731    872.14862 
   23400      277.521   0.33155306    3.2403816   0.10027026         0.01    4.0483197  0.010654947    88.773919    870.97672 
   23500    278.59271   0.33223617    3.2527372   0.10027026         0.01    4.1170869  0.010848682    88.194857    869.82927 
   23600    279.68433   0.33363059    3.2661675   0.10027026         0.01    3.9497341  0.011031551    88.202313    868.68165 
   23700    280.78849   0.33290813    3.2792709   0.10027026         0.01     3.871289  0.010455939    88.928089    867.50434 
   23800    281.83484   0.33244193    3.2915339   0.10027026         0.01    3.9376137  0.010362152    85.749029    866.46096 
   23900    282.84981   0.33166133    3.3034029   0.10027026         0.01    4.2495931  0.010186099    85.254032    865.43811 
   24000    283.93943   0.33168503    3.3154329   0.10027026         0.01    3.8799965  0.010561976    84.649927    864.44051 
   24100     284.9813   0.33218222    3.3268987   0.10027026         0.01    4.8273627 0.0099177521    85.631245    863.39876 
   24200    286.08746   0.33172731    3.3400122   0.10027026         0.01    4.3789142  0.011227406    88.038874    862.25593 
   24300    287.22631    0.3329375    3.3539412   0.10027026         0.01    4.1300166  0.011466781    88.728153    861.08567 
   24400    288.22675   0.33293308    3.3649786   0.10027026         0.01    4.6778601 0.0093283461     87.78452     859.9533 
   24500    289.18185   0.33225373    3.3762727   0.10027026         0.01    3.9358467  0.010122051    88.814522    858.78016 
   24600    290.20333   0.33242044    3.3879147   0.10027026         0.01    3.5974752  0.011800947    87.782738    857.64798 
   24700    291.34696   0.33268763    3.4006768   0.10027026         0.01    3.9037036  0.010611667    88.917909     856.4714 
   24800    292.46579   0.33126214    3.4139109   0.10027026         0.01    3.8278729  0.011391023    88.764844    855.30111 
   24900     293.6076   0.33061506    3.4272744   0.10027026         0.01    3.7385776  0.011118214    89.077499    854.11926 
   25000    294.71333   0.33068318    3.4397692   0.10027026         0.01      4.04482  0.011370134    87.554856    852.99644 
   25100    295.82252   0.33028128    3.4522598   0.10027026         0.01     4.085851  0.010894063    88.994262    851.81835 
   25200     296.9024   0.33171872    3.4647492   0.10027026         0.01    4.0676065  0.010755404    89.473618    850.62282 
   25300    297.93214   0.33104117    3.4760742   0.10027026         0.01    4.4070651 0.0095030076    88.349441    849.46989 
   25400    298.95495   0.33080419    3.4878455   0.10027026         0.01    4.2590278  0.010656601    88.330946    848.31783 
   25500    300.00074   0.33189201    3.4998212   0.10027026         0.01    3.9142275  0.010415786    88.878077    847.14556 
   25600    301.03886   0.33127618    3.5127241   0.10027026         0.01    3.6630258  0.010952468    88.268728    845.99624 
   25700    302.13153   0.33173636    3.5265658   0.10027026         0.01    3.7713611  0.010404152    88.121092    844.85252 
   25800    303.12388   0.33230395    3.5382502   0.10027026         0.01    4.1041188 0.0094916375    89.178238     843.6702 
   25900    304.15985   0.33213276    3.5490363   0.10027026         0.01    3.9138697  0.010780897    90.157179     842.4535 
   26000    305.19729   0.33121865    3.5605358   0.10027026         0.01    4.4549564  0.010097508    88.884462    841.28284 
   26100    306.22861   0.33240768    3.5713981   0.10027026         0.01    4.3102209  0.010453945    88.096641    840.14101 
   26200    307.29792   0.33192731    3.5832577   0.10027026         0.01    4.5626056  0.010933656     90.95805    838.89865 
   26300    308.38935   0.33316668    3.5958083   0.10027026         0.01    4.0881348  0.011253718    88.357239    837.74805 
   26400     309.4532   0.33118906    3.6082895   0.10027026         0.01    4.0819363  0.010518886    88.106894    836.60657 
   26500    310.48734   0.33232474    3.6196985   0.10027026         0.01    4.6700592 0.0095221275    87.975738    835.46983 
   26600    311.49529   0.33181718    3.6302769   0.10027026         0.01    3.8949114  0.010536103    87.716924    834.34235 
   26700    312.54383   0.33272228     3.640778   0.10027026         0.01     3.794213  0.011289549    90.345007    833.12372 
   26800     313.6268   0.33340336    3.6526308   0.10027026         0.01     3.796646  0.010769746    89.085899    831.94867 
   26900    314.68426   0.33228841    3.6637192   0.10027026         0.01    4.0326155  0.010369881    89.146584    830.77192 
   27000     315.6247   0.33187559    3.6739543   0.10027026         0.01    5.2953202 0.0083539273    87.192253    829.66357 
   27100     316.6127   0.33229818    3.6849037   0.10027026         0.01    4.2876621  0.010666894    88.891018    828.49596 
   27200    317.65767   0.33230687    3.6956347   0.10027026         0.01    4.4490116  0.010274826    88.015466    827.35863 
   27300    318.66841   0.33168374    3.7061382   0.10027026         0.01    4.4070877 0.0098254522    88.445405    826.20659 
   27400    319.66843   0.33211343    3.7171023   0.10027026         0.01    4.4787489  0.010266123    87.604176    825.08348 
   27500     320.6823   0.33271529        3.728   0.10027026         0.01    4.9908804 0.0098335166    87.196042    823.97432 
   27600    321.72305   0.33146439    3.7399011   0.10027026         0.01    4.0195125 0.0090718625    88.100213    822.83401 
   27700    322.70188   0.33205156    3.7507977   0.10027026         0.01    4.8844984 0.0096540662    88.870959    821.66805 
   27800    323.66854   0.33222995     3.760692   0.10027026         0.01    4.8122702 0.0085478467     87.46986    820.54919 
   27900    324.59926   0.33221869    3.7704081   0.10027026         0.01    4.7677561  0.010006801    87.974741     819.4132 
   28000    325.61275   0.33077197    3.7812578   0.10027026         0.01    4.3683158  0.010939248    88.125591     818.2722 
   28100    326.71735   0.33187792    3.7937323   0.10027026         0.01     3.843349   0.01085302     86.81891    817.17495 
   28200    327.79869   0.33248748    3.8057767   0.10027026         0.01    3.8658927  0.010301334    88.899157    816.00868 
   28300    328.81389   0.33337778    3.8177913   0.10027026         0.01    4.8842119 0.0096351573    88.785664    814.84635 
   28400    329.78311   0.33273974    3.8278655   0.10027026         0.01    4.8379972  0.009737954    88.304279    813.69975 
   28500    330.74442   0.33275593     3.839128   0.10027026         0.01    4.0872183  0.011003298    87.506887    812.57914 
   28600    331.80036   0.33221967     3.850866   0.10027026         0.01    4.4929532  0.010696651     88.78369    811.41735 
   28700    332.80441   0.33152017    3.8623934   0.10027026         0.01     4.468711 0.0094382883    87.067292    810.31097 
   28800    333.76826   0.33232544    3.8725454   0.10027026         0.01    4.5654012 0.0097918307    87.790143    809.18091 
   28900     334.7572   0.33240611    3.8828373   0.10027026         0.01    3.5733902 0.0097009552     87.54031    808.05879 
   29000    335.82449   0.33287994    3.8941097   0.10027026         0.01    3.8393581  0.010762902    89.063691     806.8887 
   29100     336.8354   0.33285531    3.9048715   0.10027026         0.01    4.0396072 0.0097852018    88.121017    805.74819 
   29200    337.87204   0.33233771    3.9159787   0.10027026         0.01    3.9719213  0.010232881    87.825621    804.61698 
   29300    338.92141   0.33352572    3.9269959   0.10027026         0.01    4.1930549  0.010883021    88.837867    803.45441 
   29400    339.99831   0.33139567    3.9386288   0.10027026         0.01    3.8773948  0.011327257    86.776178    802.35631 
   29500    341.13122   0.33237545     3.950479   0.10027026         0.01    3.8577131  0.010677522    88.842854    801.19378 
   29600    342.15952   0.33178659    3.9623968   0.10027026         0.01    4.3355908  0.010627505    88.348194    800.04649 
   29700    343.21956   0.33068438    3.9739191   0.10027026         0.01    4.3290237  0.010500842    87.948122    798.91149 
   29800    344.26441   0.33164664    3.9854195   0.10027026         0.01    4.6198968  0.010516108    88.316197    797.76531 
   29900    345.29999   0.33161754    3.9965061   0.10027026         0.01    3.8274007   0.01018661    87.987199    796.62916 
   30000    346.34666   0.33246355    4.0081907   0.10027026         0.01    4.0533909  0.010267352     86.61075    795.53514 
   30100    347.37005   0.33231143    4.0198566   0.10027026         0.01    4.4569604  0.010309695    86.884913    794.43226 
   30200    348.44497   0.33208648     4.031817   0.10027026         0.01    3.9560723  0.010126151    88.375596     793.2842 
   30300    349.50144    0.3313618    4.0442766   0.10027026         0.01    4.2225179  0.010866725    88.451355    792.13401 
   30400    350.60904   0.33205264    4.0571469   0.10027026         0.01    3.7317252  0.011601919    88.912122    790.97054 
   30500    351.66292   0.33365453    4.0688162   0.10027026         0.01    3.8649867  0.010776172    88.440239      789.821 
   30600    352.73722   0.33298665     4.081774   0.10027026         0.01    3.7883467  0.011357242     88.99885    788.65548 
   30700    353.90132   0.33166551    4.0962803   0.10027026         0.01    3.9770877  0.011307656    89.624849    787.47252 
   30800    355.01007   0.33396042    4.1092752   0.10027026         0.01    3.8312637  0.010871409    90.233172     786.2731 
   30900    356.06667   0.33244326    4.1224072   0.10027026         0.01    3.8459443 0.0099605927    87.306886    785.15733 
   31000     357.1165   0.33240772    4.1350825   0.10027026         0.01    3.9655605  0.010356796    86.980805    784.05093 
   31100     358.1616   0.33264101    4.1474829   0.10027026         0.01    3.8828527  0.010765558    88.850815    782.89065 
   31200    359.20499   0.33306724    4.1600465   0.10027026         0.01    3.9177496  0.010312862    88.528086    781.73964 
   31300     360.2516   0.33432168    4.1730127   0.10027026         0.01    4.2110003   0.01101765    89.518781    780.56132 
   31400    361.34636    0.3327117    4.1864507   0.10027026         0.01      4.05389  0.010771192    88.515082    779.41107 
   31500    362.43774   0.33271601    4.1987691   0.10027026         0.01     3.566372  0.011118929    89.761048    778.22685 
   31600    363.53359   0.33273509    4.2111235   0.10027026         0.01    4.0693122  0.011171403    88.315583    777.08253 
   31700    364.59323   0.33267158    4.2228945   0.10027026         0.01     3.510698  0.011176878    87.617078    775.95775 
   31800    365.63499   0.33311033    4.2341011   0.10027026         0.01    4.5287219  0.010411766    88.908636     774.7973 
   31900    366.71615   0.33380345    4.2464806   0.10027026         0.01    4.3247723  0.010438918    88.998945    773.63464 
   32000    367.80283    0.3334151    4.2593888   0.10027026         0.01    4.2178802  0.010560678    88.422881    772.48778 
   32100    368.87972   0.33392458    4.2714406   0.10027026         0.01    3.7061952  0.011039424    88.265775    771.34527 
   32200    369.95559    0.3331577    4.2837416   0.10027026         0.01    4.1088188  0.010464458    89.178143    770.17842 
   32300    371.05061   0.33258618    4.2959845   0.10027026         0.01    4.3489124  0.011004548    88.893146    769.01939 
   32400    372.13566    0.3323026    4.3078418   0.10027026         0.01    3.9485596   0.01079316    89.854369    767.83546 
   32500    373.23183   0.33317212    4.3204673   0.10027026         0.01    3.9368558  0.010151714    88.573402    766.68539 
   32600    374.23959   0.33223941    4.3319699   0.10027026         0.01    3.9623764 0.0094724628    89.093998    765.52182 
   32700    375.19325   0.33230594    4.3423611   0.10027026         0.01    4.1211757 0.0095548343    88.648321     764.3701 
   32800     376.2397    0.3321416    4.3535194   0.10027026         0.01    4.1443246  0.011298693    88.542046    763.22131 
   32900    377.29657   0.33171934    4.3640286   0.10027026         0.01    4.0518221  0.010479129    88.366621    762.07721 
   33000    378.35419    0.3319058    4.3752122   0.10027026         0.01    4.0246896  0.010867166    87.075481    760.96725 
   33100    379.42515   0.33286233    4.3869072   0.10027026         0.01    3.9623711  0.010302936    88.972155    759.80758 
   33200    380.49338    0.3311457    4.3977707   0.10027026         0.01    3.7950422  0.010108541    89.314357    758.63946 
   33300    381.57143   0.33246331    4.4088126   0.10027026         0.01    3.7744103  0.010723467    90.035892    757.45366 
   33400    382.63918    0.3320583    4.4208026   0.10027026         0.01    4.2206104  0.010713073     88.49017    756.30699 
   33500    383.69191   0.33257647    4.4326615   0.10027026         0.01    3.8859846 0.0097595505    88.747603    755.15392 
   33600    384.74244   0.33308921    4.4446976   0.10027026         0.01    4.1124506  0.010328805    89.391716    753.98495 
   33700    385.79863   0.33298071    4.4561565   0.10027026         0.01    3.8443965  0.010704972    87.149914     752.8729 
   33800     386.8713   0.33315925    4.4686597   0.10027026         0.01    3.6621488  0.011082894    89.025089     751.7133 
   33900    387.92029    0.3322508      4.47989   0.10027026         0.01    4.1420821  0.010380528    88.960757     750.5555 
   34000    388.91874   0.33308479     4.490489   0.10027026         0.01    4.5912726 0.0098728822    86.853967    749.45083 
   34100    389.94203    0.3319861    4.5021648   0.10027026         0.01    4.5418401   0.01086043    87.451641    748.33068 
   34200    391.04017   0.33217094    4.5138292   0.10027026         0.01    4.3018178  0.010555532    88.092145    747.19439 
   34300    392.12461   0.33215791    4.5256354   0.10027026         0.01     4.222506  0.010594117    88.485485    746.04845 
   34400    393.14976   0.33261123    4.5367623   0.10027026         0.01    4.2023086  0.010806291     88.58008    744.90029 
   34500    394.21393    0.3328186    4.5483842   0.10027026         0.01    4.2379554   0.01077739    89.109311    743.73952 
   34600    395.27479   0.33323102    4.5600662   0.10027026         0.01      4.31016  0.010780472    88.901701    742.58392 
   34700    396.32891   0.33190672    4.5720266   0.10027026         0.01    4.1425468  0.010866661    88.013287    741.44987 
   34800     397.4185   0.33291488    4.5845895   0.10027026         0.01    4.1343928  0.010481214    88.272165    740.30956 
   34900    398.50737   0.33208234    4.5978335   0.10027026         0.01    4.4341982  0.010396866    87.421146    739.18987 
   35000    399.61994   0.33312311    4.6102119   0.10027026         0.01    3.8292673  0.011825064    88.815632    738.03668 
   35100    400.73666   0.33350079    4.6226067   0.10027026         0.01    3.6752569  0.010534753    87.668154     736.9109 
   35200    401.83895   0.33239206    4.6341837   0.10027026         0.01    3.8696758  0.011318943    89.167488    735.74973 
   35300    402.97692   0.33254101    4.6453944   0.10027026         0.01    3.5143838  0.011291603    88.837397    734.59641 
   35400    404.05004   0.33157645    4.6571653   0.10027026         0.01    3.6834324  0.010766838    89.636743    733.42494 
   35500    405.10496   0.33162739    4.6689417   0.10027026         0.01    4.0004446  0.011020399    86.210611    732.33433 
   35600    406.20359   0.33214499    4.6820576   0.10027026         0.01    3.8666371  0.011603807    88.987049    731.17787 
   35700     407.3219   0.33202853    4.6950304   0.10027026         0.01    3.7777732  0.011602065    88.906902    730.02341 
   35800    408.47333   0.33284504    4.7079222   0.10027026         0.01    3.9478164  0.011504906    89.075607     728.8653 
   35900    409.58588   0.33155521    4.7203444   0.10027026         0.01    4.1664365  0.011291622    89.400881     727.7001 
   36000    410.68249   0.33176085    4.7322086   0.10027026         0.01    3.8448639  0.010969942    88.841273    726.54767 
   36100     411.7621   0.33074468      4.74351   0.10027026         0.01    3.9119044 0.0098980984    85.799495    725.46604 
   36200    412.84092   0.33170105    4.7550842   0.10027026         0.01    3.4125809  0.011446195    86.141258    724.37579 
   36300    413.90163   0.33178786    4.7661378   0.10027026         0.01    4.5543379  0.010508924    85.791246    723.29346 
   36400    414.91608   0.33212508    4.7780468   0.10027026         0.01    4.3735243  0.010538628    85.714262     722.2125 
   36500    415.96987   0.33246836    4.7905684   0.10027026         0.01    4.3067061  0.010828353    85.590792      721.134 
   36600    417.06923   0.33290998    4.8028316   0.10027026         0.01    3.8130974  0.011117204    86.250695    720.03953 
   36700    418.13642   0.33268128    4.8145231   0.10027026         0.01    4.0976881  0.010760076    88.224261    718.89997 
   36800    419.13658    0.3316033    4.8254625   0.10027026         0.01    3.6296514 0.0099388023    88.716667    717.74963 
   36900    420.11082    0.3335357    4.8352493   0.10027026         0.01    4.6921462 0.0096701729    87.012202    716.63718 
   37000    421.17235    0.3327779    4.8465039   0.10027026         0.01     4.054844   0.01097973    86.321201     715.5402 
   37100     422.2638   0.33327256     4.858432   0.10027026         0.01    3.6479466  0.010489709    87.623448    714.41369 
   37200    423.31448   0.33266368    4.8706021   0.10027026         0.01    3.7975772  0.011161398    86.517171    713.31174 
   37300    424.43315   0.33234724    4.8830224   0.10027026         0.01    3.7944482   0.01131245    88.419433     712.1677 
   37400    425.55753   0.33243234    4.8957358   0.10027026         0.01    3.9664588  0.011299904     87.91542    711.03458 
   37500     426.6779   0.33383794     4.907991   0.10027026         0.01    3.9727827  0.010856709    87.701755    709.90607 
   37600    427.74796   0.33290879    4.9197956   0.10027026         0.01    3.6756752  0.010939501    87.236666    708.78757 
   37700    428.78878   0.33276729    4.9303242   0.10027026         0.01    4.1891274  0.010146963    85.089881    707.71672 
   37800    429.83684    0.3320595    4.9412642   0.10027026         0.01    3.7499962  0.010108755    86.232767    706.61969 
   37900    430.92028   0.33198638    4.9526439   0.10027026         0.01    4.2873276  0.010614737    88.453836    705.47461 
   38000    431.87587   0.33349452    4.9629921   0.10027026         0.01    4.1007219  0.010031997    87.878175     704.3417 
   38100     432.9109   0.33232963    4.9743021   0.10027026         0.01    4.3454288  0.010217832    87.750856    703.21144 
   38200    433.93164   0.33270198    4.9856629   0.10027026         0.01    3.6072192  0.010889994    88.573645      702.064 
   38300    434.97452   0.33207776    4.9975949   0.10027026         0.01    3.4193904  0.010409643    88.686541    700.91435 
   38400    435.99268   0.33302606    5.0084913   0.10027026         0.01    4.3178828 0.0094677592    87.731914    699.78449 
   38500     436.9461   0.33221062    5.0196889   0.10027026         0.01    4.0856095 0.0094823103    87.041816    698.66902 
   38600    437.93086    0.3331915    5.0305608   0.10027026         0.01    4.4408077 0.0094666626    87.176287    697.55056 
   38700    438.98479   0.33191886    5.0425688   0.10027026         0.01    4.0779017  0.010906051    88.197417    696.41091 
   38800    440.06456   0.33221113     5.054878   0.10027026         0.01    3.7969919   0.01087155     88.11054    695.27305 
   38900    441.11867   0.33312821    5.0665988   0.10027026         0.01    3.8052662  0.010165162    88.840878    694.12056 
   39000    442.19876   0.33309661    5.0785506   0.10027026         0.01     4.491762  0.010890306    86.908767    693.00734 
   39100    443.16609   0.33361992    5.0892955   0.10027026         0.01    3.8932145 0.0085479925    88.689991    691.85794 
   39200    444.09961   0.33303009    5.0998733   0.10027026         0.01    4.0246022  0.010108513    88.929899    690.70393 
   39300    445.11171   0.33227548    5.1119427   0.10027026         0.01    3.8079983  0.010284543    87.746248     689.5735 
   39400    446.13339   0.33245597    5.1247937   0.10027026         0.01    3.9621001 0.0099909253    89.231701    688.41385 
   39500    447.09083   0.33255668    5.1362069   0.10027026         0.01    4.0644654 0.0097049064    88.819882    687.26234 
   39600    448.09629   0.33235072    5.1491107   0.10027026         0.01    3.8293398  0.010769438    88.843945    686.11051 
   39700    449.16853   0.33087732    5.1618992   0.10027026         0.01    3.9954432   0.01120228    89.886103    684.93898 
   39800    450.23034   0.33195158    5.1744213   0.10027026         0.01    4.0608228    0.0109349     88.79055    683.78852 
   39900     451.3522   0.33376655    5.1878454   0.10027026         0.01    4.0254381  0.011333102    88.921698    682.63567 
   40000    452.46005   0.33197707    5.2013872   0.10027026         0.01    4.0496817  0.010581128    87.701132    681.50644 
   40100    453.52038   0.33316069    5.2133891   0.10027026         0.01    4.4552515  0.010823586    88.022984    680.37093 
   40200     454.5947    0.3327254    5.2259667   0.10027026         0.01    4.3046137 0.0095971419    87.626908    679.24305 
   40300    455.62075   0.33341171    5.2387229   0.10027026         0.01    3.9849942  0.010701099    86.775873    678.13169 
   40400    456.69837   0.33283327    5.2518598   0.10027026         0.01    4.2110877  0.010968477    85.094369    677.05372 
   40500    457.77286   0.33264706    5.2648389   0.10027026         0.01    3.5170586 0.0094782586    85.397531    675.96914 
   40600    458.69366   0.33229797    5.2770448   0.10027026         0.01    3.6277183 0.0094811153    86.508713    674.86213 
   40700    459.65439   0.33266347    5.2884865   0.10027026         0.01    4.7146558 0.0097749941    86.681542    673.75152 
   40800    460.61861    0.3322262    5.3008847   0.10027026         0.01    4.2873745  0.010705269    86.179701    672.65045 
   40900    461.65913   0.33359307    5.3133316   0.10027026         0.01     3.941972 0.0098352012    85.753815    671.55741 
   41000    462.66387   0.33270825    5.3264248   0.10027026         0.01    3.5104583  0.010715428    84.735931    670.48418 
   41100    463.78041   0.33302703    5.3403239   0.10027026         0.01    3.8588442  0.010961515    88.559432    669.33741 
   41200    464.83804   0.33252167    5.3528468   0.10027026         0.01    3.6723844  0.010069268      89.7472    668.16939 
   41300    465.88246   0.33236257    5.3649316   0.10027026         0.01    4.4728763  0.010875692     88.23033    667.02886 
   41400    466.97276    0.3318893    5.3779281   0.10027026         0.01    4.0207744  0.011262574    88.713909    665.87962 
   41500     468.0004   0.33251791    5.3889085   0.10027026         0.01    4.5490079 0.0099004012    88.634177    664.73192 
   41600    469.04898   0.33207699    5.4000751   0.10027026         0.01    4.1077297  0.010347944    88.684553    663.58341 
   41700    470.11609   0.33268813    5.4125957   0.10027026         0.01    4.0580418  0.011024706    87.285556    662.46027 
   41800    471.22538   0.33292332    5.4254283   0.10027026         0.01    3.9068794  0.011349401    88.054917    661.32308 
   41900    472.27702   0.33149286     5.437654   0.10027026         0.01    3.9496282  0.011061682    88.400052    660.17975 
   42000     473.3359   0.33224263    5.4490374   0.10027026         0.01    4.2323444  0.010103706    86.669542    659.06767 
   42100    474.35261   0.33204512    5.4600403   0.10027026         0.01    3.8766492  0.010845915    88.482106    657.92289 
   42200    475.44567   0.33164398    5.4721058   0.10027026         0.01     4.223354  0.010887399    85.848702    656.82566 
   42300    476.53509   0.33210078    5.4846831   0.10027026         0.01     4.197275  0.010602531    88.631967    655.67821 
   42400    477.62532   0.33187681    5.4961946   0.10027026         0.01    4.4246039  0.010944317    89.556703    654.51503 
   42500    478.67325   0.33034127    5.5076417   0.10027026         0.01    4.4412344  0.010760341    89.286826    653.35663 
   42600    479.77291   0.33308331    5.5183415   0.10027026         0.01     3.768173    0.0113667    88.700063     652.2084 
   42700    480.83231   0.33292597    5.5301718   0.10027026         0.01    3.8226107   0.01044691    89.882713    651.04035 
   42800    481.82786   0.33221268    5.5414183   0.10027026         0.01    4.5159123  0.010061569    89.151909    649.88476 
   42900    482.84144   0.33247458    5.5524873   0.10027026         0.01    3.6708556  0.010099418    88.898686    648.73357 
   43000    483.84019   0.33264943    5.5632625   0.10027026         0.01    3.8535048   0.01015434    88.357872    647.59164 
   43100    484.83572   0.33280333    5.5744137   0.10027026         0.01    3.8511906    0.0110963    88.877041    646.44102 
   43200      485.875   0.33252816    5.5858183   0.10027026         0.01    4.5311141  0.010485368    87.843813    645.30793 
   43300    486.97712   0.33155921    5.5989149   0.10027026         0.01    3.9605123   0.01110913    89.443929    644.14814 
   43400    488.02541   0.33214812    5.6110447   0.10027026         0.01    3.8702876 0.0098372766     86.36987    643.04044 
   43500    489.04352   0.33285238    5.6223058   0.10027026         0.01    4.3055801  0.010347161    86.705769    641.92668 
   43600    490.10993   0.33454057    5.6335247   0.10027026         0.01    4.1386873  0.010371041    85.413426    640.83531 
   43700    491.13766   0.33227889    5.6443426   0.10027026         0.01    3.7805761  0.010239379    86.616009    639.72264 
   43800    492.14277   0.33258269    5.6553646   0.10027026         0.01    3.6601791 0.0092583112    85.253599    638.63345 
   43900    493.09938   0.33311295    5.6656707   0.10027026         0.01     4.110812 0.0096411377    86.627333    637.52011 
   44000    494.09643   0.33310277    5.6769728   0.10027026         0.01    4.3587947  0.010415667    76.178811    636.60809 
   44100    495.09893   0.33221364    5.6888907   0.10027026         0.01    3.9716663 0.0093415228    77.058115    635.67527 
   44200    496.19089   0.33232604    5.7012399   0.10027026         0.01    3.8466542  0.011155713    81.175422    634.65771 
   44300     497.2946   0.33226842    5.7133021   0.10027026         0.01    3.7166038  0.010986962    79.532412    633.67117 
   44400     498.3951   0.33192727    5.7259652   0.10027026         0.01    4.3272777  0.010584036    79.776687    632.67859 
   44500    499.50098   0.33376083    5.7379725   0.10027026         0.01    3.8789638  0.011147977    80.410482    631.67252 
   44600    500.59999   0.33315837    5.7495171   0.10027026         0.01    4.1520036  0.010602042    80.227973    630.66889 
   44700    501.68334   0.33271841    5.7615674   0.10027026         0.01    4.2475498  0.010833434    83.475448    629.60419 
   44800    502.72816   0.33236796    5.7729752   0.10027026         0.01     4.024357  0.010767373    85.247274    628.50822 
   44900    503.81702   0.33147925     5.784843   0.10027026         0.01    4.1338499  0.010572212    84.015195    627.43301 
   45000    504.87361   0.33229788     5.795979   0.10027026         0.01    4.1006787  0.010372085    81.896455    626.39493 
   45100    505.95875   0.33218691    5.8074917   0.10027026         0.01    3.8678753   0.01085561    83.832762     625.3217 
   45200    507.07298   0.33303596    5.8196674   0.10027026         0.01    4.1076779  0.011387647    84.175864    624.24205 
   45300    508.15679   0.33244586    5.8310225   0.10027026         0.01     3.933278  0.011851506    84.232664    623.16096 
   45400    509.28337    0.3315988    5.8436379   0.10027026         0.01    3.5539504  0.010525237    84.087874    622.08185 
   45500    510.39404   0.33378342    5.8558332   0.10027026         0.01    3.8035547  0.011147226    84.333825    620.99811 
   45600    511.46482   0.33213288    5.8678178   0.10027026         0.01     4.438194  0.009334684    83.565639    619.92692 
   45700    512.43115   0.33179325    5.8780836   0.10027026         0.01    4.4444348  0.010096874    78.456293    618.94779 
   45800    513.47609   0.33270208    5.8902792   0.10027026         0.01    4.9359384  0.009810744    78.840419    617.96001 
   45900    514.52336   0.33202315    5.9026784   0.10027026         0.01     3.895687  0.010213227    80.296136     616.9439 
   46000    515.63499   0.33263143    5.9151583   0.10027026         0.01    3.9412708   0.01105865    79.320698    615.94478 
   46100    516.70591   0.33369522    5.9273042   0.10027026         0.01    4.3193606  0.010384166    78.802766    614.95421 
   46200    517.78291   0.33122111    5.9414573   0.10027026         0.01    4.1676603  0.010366171    79.373386    613.95181 
   46300    518.81828   0.33186635    5.9543809   0.10027026         0.01    3.9484366   0.01029729    79.039832    612.95447 
   46400    519.87878   0.33244882    5.9666396   0.10027026         0.01    3.8973763  0.010166696    79.221592    611.95262 
   46500    520.93797   0.33256883    5.9800567   0.10027026         0.01    4.1119665  0.010760648    79.670431    610.94147 
   46600    521.98888   0.33264407    5.9924272   0.10027026         0.01    4.5383868  0.010952832    79.534689    609.93172 
   46700    523.07007   0.33251289    6.0045228   0.10027026         0.01    4.1370874  0.010742651    80.254039    608.90805 
   46800    524.11687   0.33213353    6.0165724   0.10027026         0.01    4.3483696 0.0099802667    78.971673    607.90643 
   46900    525.16043   0.33114134    6.0287952   0.10027026         0.01    4.3399286  0.010704227    78.941604    606.90423 
   47000    526.20402   0.33105301    6.0406771   0.10027026         0.01    3.9613925  0.010176349    78.421908    605.91037 
   47100     527.2489   0.33215869    6.0532386   0.10027026         0.01    4.3623668  0.010339706    78.545092    604.91307 
   47200    528.32839   0.33258276    6.0651643   0.10027026         0.01    3.5222896  0.010158894    79.604972    603.89564 
   47300    529.40984   0.33296999    6.0782985   0.10027026         0.01    3.8902867  0.010805236    79.003848    602.88785 
   47400    530.51677    0.3316657    6.0920106   0.10027026         0.01    3.7689219   0.01036245    80.518738    601.85254 
   47500    531.59462   0.33307662    6.1048974   0.10027026         0.01    4.2070061  0.011167425    79.914459    600.82674 
   47600    532.66966   0.33198905     6.117262   0.10027026         0.01    4.5437403   0.01067127    78.022299     599.8334 
   47700    533.72685   0.33297014    6.1297997   0.10027026         0.01     4.020226 0.0099184852    79.241738    598.81723 
   47800    534.77007   0.33221872    6.1420813   0.10027026         0.01    4.0680139  0.011527906    80.237642    597.78292 
   47900    535.88496   0.33207362    6.1548201   0.10027026         0.01    4.0189541  0.011180603    79.013775    596.76873 
   48000    536.94762   0.33201437     6.167114   0.10027026         0.01    3.7970648  0.010807336    79.015278    595.75346 
   48100    537.99242   0.33196844    6.1791126   0.10027026         0.01    3.9278051  0.010219449    81.938884    594.68843 
   48200    539.02672   0.33196414     6.191625   0.10027026         0.01    4.1587646 0.0097986178    82.718459    593.61039 
   48300    540.04258   0.33182432    6.2036256   0.10027026         0.01    4.9675247 0.0095302702    83.758047    592.51575 
   48400    541.10231   0.33326907    6.2162437   0.10027026         0.01    4.5197008  0.010729563    83.726648    591.42118 
   48500    542.14547   0.33242517    6.2288714   0.10027026         0.01    4.7735981  0.010403689    83.918019     590.3233 
   48600    543.20947   0.33240872    6.2409865   0.10027026         0.01    4.3204974  0.011148718    83.775329    589.22718 
   48700    544.30738   0.33241144    6.2545651   0.10027026         0.01    4.2862391  0.010734612    82.914127    588.14372 
   48800    545.37652   0.33273547    6.2666604   0.10027026         0.01    4.4256415  0.010938351    84.192304    587.04055 
   48900    546.47072    0.3336158    6.2794795   0.10027026         0.01    3.9308238   0.01122728    83.590104    585.94598 
   49000    547.47537   0.33220139    6.2915229   0.10027026         0.01    4.5330331  0.010072189    83.262758    584.85588 
   49100    548.48331   0.33231429    6.3022516   0.10027026         0.01    4.0855466  0.010993153    82.020587    583.78419 
   49200    549.59217   0.33348456    6.3153256   0.10027026         0.01    4.4345476  0.010995656    84.654301    582.67273 
   49300    550.67921   0.33332388    6.3281322   0.10027026         0.01    3.8939544  0.010963383    84.403354    581.56461 
   49400    551.79759   0.33208263    6.3406325   0.10027026         0.01    4.0470004  0.010761398     84.96617    580.44813 
   49500     552.9077   0.33118975    6.3528104   0.10027026         0.01    3.7968028  0.011214898    85.530908    579.32348 
   49600    554.01577   0.33247621    6.3651125   0.10027026         0.01    3.8439357  0.010978296     83.83355    578.22271 
   49700    555.08271   0.33227134    6.3777006   0.10027026         0.01    4.1465073  0.010154073    83.951562    577.11987 
   49800    556.07943   0.33172627    6.3895327   0.10027026         0.01    4.0668294   0.01020705    84.696883    576.00611 
   49900    557.10288   0.33340136    6.4014832   0.10027026         0.01    4.0500658 0.0099792687    83.843588    574.90414 
   50000     558.1141   0.33231668    6.4138246   0.10027026         0.01    4.0792357 0.0097845574     80.67066    573.84872 
   50100    559.15632   0.33269092    6.4261537   0.10027026         0.01    4.2584923  0.010625166    82.859386    572.75995 
   50200    560.24749   0.33200177    6.4379058   0.10027026         0.01    4.4967702  0.010355175     83.36369    571.66347 
   50300    561.27187   0.33199978    6.4486393   0.10027026         0.01    3.7761344  0.010388237    82.733095    570.57562 
   50400    562.27082   0.33120013    6.4593934   0.10027026         0.01    4.3926896  0.009954108     82.19703    569.49504 
   50500     563.2877   0.33333806    6.4705084   0.10027026         0.01    4.2640694  0.010915577    82.623673    568.40776 
   50600    564.29768   0.33228447    6.4821598   0.10027026         0.01    3.9100209  0.010865619     83.58066    567.30647 
   50700    565.31755   0.33289978    6.4934963   0.10027026         0.01    4.7751645 0.0099106788    83.682364    566.20339 
   50800    566.32687   0.33127082    6.5054352   0.10027026         0.01    4.6607603  0.009346329    82.094933    565.12233 
   50900    567.28316   0.33332293    6.5160453   0.10027026         0.01    3.7505658 0.0092975317    82.806956    564.03063 
   51000      568.267   0.33154802    6.5273374   0.10027026         0.01    4.7437077  0.010131394    83.137823    562.93385 
   51100    569.31723   0.33134957    6.5397132   0.10027026         0.01    4.2180464  0.010720962    82.649804    561.84346 
   51200     570.3818   0.33175895    6.5512062   0.10027026         0.01     3.518532  0.010743552    84.772135    560.72373 
   51300    571.42629   0.33345132    6.5623602   0.10027026         0.01    3.9915383   0.01013526    81.473297     559.6491 
   51400    572.46452    0.3312647    6.5728787   0.10027026         0.01    4.3111615  0.010333191    80.363445    558.58991 
   51500    573.52928   0.33202342    6.5851331   0.10027026         0.01    3.7739946 0.0099742678    79.320188    557.54541 
   51600    574.60576   0.33161671    6.5977215   0.10027026         0.01    3.9758064  0.011171213    80.049759     556.4893 
   51700    575.69776   0.33241203    6.6097765   0.10027026         0.01    3.7638918  0.011426682    80.393158    555.42746 
   51800    576.81469   0.33284053    6.6223855   0.10027026         0.01    4.5352528  0.010579773    80.588619     554.3621 
   51900    577.88162   0.33229834    6.6346124   0.10027026         0.01    4.0730193  0.010867807    84.265799    553.24588 
   52000    578.96981   0.33278307    6.6465268   0.10027026         0.01    4.6619587  0.010306511    88.270605     552.0797 
   52100    579.98064   0.33193612     6.657208   0.10027026         0.01    4.7493173  0.010021728    87.373706    550.92433 
   52200    580.99371   0.33161245    6.6681598   0.10027026         0.01    4.3563655  0.010291272    89.444406    549.74474 
   52300    582.00184   0.33126815    6.6795886   0.10027026         0.01    4.1071245  0.010170779    89.218567    548.56797 
   52400    582.99762   0.33165862    6.6903726   0.10027026         0.01    4.3422666  0.010525181    86.839473    547.41931 
   52500    584.03169   0.33172282    6.7017798   0.10027026         0.01    3.7643396  0.010072189    88.884707    546.24666 
   52600    585.07295   0.33145476    6.7126254   0.10027026         0.01    4.4050936 0.0096749134     88.31378    545.08075 
   52700    586.05029   0.33290996    6.7237204   0.10027026         0.01    4.0539153 0.0089877113    88.619402    543.91145 
   52800    587.03777   0.33220321    6.7342406   0.10027026         0.01    3.6815753  0.010572033    88.572242    542.74285 
   52900    588.11504   0.33102471     6.746568   0.10027026         0.01      4.36234  0.010220976    88.322688    541.57725 
   53000    589.18775   0.33195306    6.7585741   0.10027026         0.01    4.0555741  0.010040119    87.180908    540.42491 
   53100    590.25785    0.3330779    6.7695537   0.10027026         0.01     3.676963  0.011167328    89.713779      539.244 
   53200    591.31758   0.33079435    6.7811592   0.10027026         0.01     3.736526   0.01027287    89.047278    538.07067 
   53300    592.39495   0.33220391    6.7931008   0.10027026         0.01    3.8702241  0.010554308    88.046913    536.90871 
   53400    593.46674   0.33017124    6.8049849   0.10027026         0.01    3.9246622   0.01013107    88.793558    535.73851 
   53500    594.45592   0.33260206    6.8159647   0.10027026         0.01    3.9233106 0.0096307009    88.474192    534.57202 
   53600    595.45588   0.33298009    6.8277948   0.10027026         0.01    4.1917986  0.010564591    87.773204    533.41347 
   53700    596.50087   0.33171931    6.8406269   0.10027026         0.01    3.9763479  0.011561957    89.404006    532.23707 
   53800    597.60933    0.3319104      6.85426   0.10027026         0.01    4.2050437  0.011368188    88.076939    531.07536 
   53900    598.76115   0.33230264    6.8672468   0.10027026         0.01    3.9765925  0.011880948    88.772416    529.90615 
   54000    599.90746   0.33315869    6.8806137   0.10027026         0.01    4.0610363  0.011650476    88.752485     528.7373 
   54100    601.00071   0.33222934    6.8937066   0.10027026         0.01      3.76977  0.010958703    88.248634    527.57407 
   54200    602.11219   0.33386731    6.9071323   0.10027026         0.01    4.3701056  0.011348737      88.6209    526.40693 
   54300    603.19432   0.33208109    6.9192532   0.10027026         0.01     3.755499  0.010865459    88.716029    525.23891 
   54400    604.20184   0.33121894    6.9305834   0.10027026         0.01    4.9578239 0.0095788747    88.544793    524.07287 
   54500    605.16625   0.33143178    6.9415948   0.10027026         0.01    3.7111919 0.0098822236    88.367161    522.90886 
   54600    606.11485   0.33193492    6.9525538   0.10027026         0.01    4.6830072 0.0094367017    88.735004    521.74107 
   54700    607.07766   0.33149943    6.9646566   0.10027026         0.01    4.4376228  0.009856277    89.396993    520.56652 
   54800    608.05349   0.33201028    6.9762123   0.10027026         0.01    4.3324114 0.0098879303    88.367552    519.40292 
   54900     609.0349   0.33228751    6.9882982   0.10027026         0.01    4.3811592 0.0098002865    87.421912    518.24949 
   55000     610.0158    0.3319355     6.999806   0.10027026         0.01    4.4698131  0.010458652    87.061979    517.09996 
   55100    611.09752   0.33175871    7.0134404   0.10027026         0.01    4.4996101  0.010453361    88.381071    515.93647 
   55200    612.14984   0.33198909    7.0265897   0.10027026         0.01    4.3517446  0.010380576    88.076939    514.77627 
   55300    613.28302   0.33116775      7.04032   0.10027026         0.01    3.9455116  0.011344741    88.654917    513.61017 
   55400    614.38779   0.33168246    7.0533675   0.10027026         0.01    4.3303449  0.010108516    88.467474    512.44613 
   55500     615.5086   0.33060274    7.0670409   0.10027026         0.01     4.086289  0.010663907    88.222313    511.28474 
   55600    616.62951    0.3320605     7.079975   0.10027026         0.01    3.6499993  0.011368576     88.41468    510.12147 
   55700    617.75464   0.33250519    7.0936147   0.10027026         0.01    4.3550134  0.010349851    88.477477    508.95768 
   55800      618.792   0.33244579    7.1058953   0.10027026         0.01    3.8968217  0.010599486    89.723932    507.78158 
   55900    619.82036   0.33242182    7.1173762   0.10027026         0.01    4.4856838  0.010629938    87.634341    506.62666 
   56000    620.89882   0.33320225    7.1303012   0.10027026         0.01    4.0001835  0.010692619    87.265833    505.47558 
   56100    621.98306   0.33064336    7.1434024   0.10027026         0.01    4.4101933  0.010371913    88.314245    504.31387 
   56200     622.9774   0.33163593    7.1560911   0.10027026         0.01    4.4939692  0.010498262    86.841523    503.16723 
   56300      624.029   0.33133001    7.1687784   0.10027026         0.01    3.8847738  0.010446698    89.224298     501.9967 
   56400    625.06443   0.33207645    7.1807778   0.10027026         0.01    3.7411354  0.010374075    87.914406    500.83926 
   56500    626.10482   0.33102191    7.1933661   0.10027026         0.01    4.0320063  0.010322823     87.57257    499.68531 
   56600    627.07106   0.33182602      7.20411   0.10027026         0.01    3.9481542 0.0093285869    88.095013     498.5262 
   56700    628.02238   0.33227799    7.2155601   0.10027026         0.01    3.8774591 0.0099187823    88.512411     497.3631 
   56800    629.02658   0.33101893    7.2280094   0.10027026         0.01    4.4570689  0.010035202    88.228715    496.20287 
   56900    630.00062   0.33218615    7.2386346   0.10027026         0.01    3.9288224 0.0092778841    87.838643    495.04655 
   57000    630.93166   0.33248066    7.2485273   0.10027026         0.01    4.1039344 0.0093071791    87.381042    493.89479 
   57100    631.87181   0.33248923     7.258643   0.10027026         0.01    4.4908038 0.0099970552    88.837491    492.72897 
   57200    632.95394   0.33190079      7.27092   0.10027026         0.01    3.6949929  0.011193613    88.117981    491.57015 
   57300    634.06673   0.33217323    7.2832305   0.10027026         0.01    4.2778748  0.011019428    87.631595    490.41612 
   57400    635.08522   0.33249333      7.29441   0.10027026         0.01    4.9672471  0.009824895    88.825168    489.25075 
   57500    636.17444   0.33154241    7.3076818   0.10027026         0.01    3.9508287  0.011170209    88.677803     488.0869 
   57600     637.2893   0.33200625    7.3210455   0.10027026         0.01    3.7074866  0.010957246    89.003043    486.92015 
   57700    638.37313   0.33219496    7.3344522   0.10027026         0.01    4.5196777  0.010598774      88.6992    485.75636 
   57800    639.39368   0.33302042    7.3475075   0.10027026         0.01    4.0171669  0.010539102    87.698913    484.60209 
   57900    640.42562   0.33227009     7.360584   0.10027026         0.01    4.0378606  0.010570191    88.290077    483.44232 
   58000    641.46911   0.33291882    7.3736136   0.10027026         0.01    4.1046248 0.0096370088    84.209613    482.32238 
   58100    642.52985   0.33292449    7.3854628   0.10027026         0.01    4.2989397  0.010895599    84.459526    481.19968 
   58200    643.62271    0.3319499    7.3981524   0.10027026         0.01     3.834902  0.010171357    89.352486     480.0302 
   58300    644.67204   0.33248401    7.4106787   0.10027026         0.01    3.7189299    0.0108934    88.504343    478.86856 
   58400     645.6904   0.33228621    7.4218881   0.10027026         0.01    3.7968029 0.0098155515    88.125757    477.71049 
   58500    646.67613   0.33225582     7.433815   0.10027026         0.01    4.2733425  0.010410156    87.628995    476.55706 
   58600    647.73508   0.33216718    7.4465537   0.10027026         0.01    3.7527419  0.011092798    88.464638    475.39606 
   58700    648.76986   0.33307414    7.4584269   0.10027026         0.01    3.9735106 0.0097536846    88.222721    474.23735 
   58800    649.74188   0.33230468    7.4701063   0.10027026         0.01    4.9101287 0.0094895516    88.050868    473.08026 
   58900    650.73963   0.33238266     7.482454   0.10027026         0.01    3.7382699  0.011061856    87.342957    471.92968 
   59000    651.83833   0.33173801    7.4955597   0.10027026         0.01    3.7426039  0.011676588    87.143703    470.78093 
   59100    652.82124   0.33244076    7.5071087   0.10027026         0.01    4.1265723  0.009648056    88.234302    469.62238 
   59200    653.80271   0.33373466      7.51897   0.10027026         0.01    4.0382083   0.01038998    87.634121    468.46925 
   59300    654.84966   0.33188321    7.5317063   0.10027026         0.01    3.8755337  0.010760604    88.368502    467.30966 
   59400    655.95281   0.33174878    7.5455736   0.10027026         0.01     4.042408  0.011145039    88.523545    466.14881 
   59500    657.00726   0.33104432    7.5591676   0.10027026         0.01    4.4077974  0.010397687    88.998284    464.98396 
   59600    658.06835   0.33137036    7.5728797   0.10027026         0.01    3.8500944  0.010809273    87.834413    463.82934 
   59700    659.11947   0.33152056    7.5867709   0.10027026         0.01    3.6218015  0.011229813    88.978101     462.6649 
   59800     660.1699   0.33149312    7.5985842   0.10027026         0.01    5.0318722 0.0099336681    88.517754    461.50452 
   59900    661.18411   0.33129614    7.6106789   0.10027026         0.01    4.4103868  0.011000263    89.446714    460.33639 
   60000    662.22038   0.32910683    7.6226384   0.10027026         0.01    3.6676913  0.010156537    87.869448    459.18181 
   60100    663.23145   0.33157905    7.6348204   0.10027026         0.01    4.2856077  0.010028532    86.346471    458.04061 
   60200    664.20763    0.3311524    7.6467477   0.10027026         0.01    3.5990988 0.0098615426    88.192595    456.88332 
   60300    665.19686    0.3319074    7.6574972   0.10027026         0.01    4.0655915 0.0095529674    88.065381    455.72719 
   60400    666.23799   0.33056203    7.6698343   0.10027026         0.01    3.8216514  0.010316244    87.323191    454.57746 
   60500    667.26134   0.33114305    7.6823316   0.10027026         0.01    3.9193469  0.010137718    85.565962    453.44309 
   60600    668.30883   0.33040956    7.6947554   0.10027026         0.01    3.9080045  0.011131275    84.730402    452.31611 
   60700    669.38963   0.33131628     7.707045   0.10027026         0.01    4.5358599  0.010684398    84.485794    451.19116 
   60800    670.47159   0.33175651    7.7191156   0.10027026         0.01    4.4411224   0.01084627    80.755481    450.10127 
   60900    671.49806   0.33069444    7.7305275   0.10027026         0.01    4.6604772  0.010600436    80.267769    449.01572 
   61000    672.60366   0.33214425    7.7427565   0.10027026         0.01    4.1536927  0.011367771    81.850076    447.91425 
   61100    673.67913   0.33272757    7.7542908   0.10027026         0.01    3.9857043  0.011273338    83.986612     446.7926 
   61200    674.76373   0.33320818     7.766937   0.10027026         0.01    4.1893106  0.010655231    81.175155    445.69687 
   61300    675.83903   0.33206213    7.7795286   0.10027026         0.01     4.106787  0.011151326    75.904852    444.65469 
   61400    676.92058   0.33251885    7.7915741   0.10027026         0.01    4.0585598  0.010711555    73.522805    443.63845 
   61500    677.95008   0.33352471    7.8043476   0.10027026         0.01    4.4686862  0.010365442    81.182681    442.54076 
   61600    678.98054   0.33228702    7.8168968   0.10027026         0.01    3.8454119  0.010756038    83.362928    441.42254 
   61700    680.04764   0.33148507    7.8287425   0.10027026         0.01    4.1286606  0.011037242    82.805436    440.30908 
   61800      681.115   0.33313076    7.8400958   0.10027026         0.01    4.1408106  0.010665333    82.200284     439.2008 
   61900    682.14443   0.33238081    7.8502672   0.10027026         0.01    3.9598933  0.010587195    83.146657    438.08365 
   62000    683.22362   0.33226968    7.8623177   0.10027026         0.01    3.9556779   0.01109659    82.658225    436.97059 
   62100    684.30207   0.33167764    7.8742591   0.10027026         0.01    4.1804328   0.01018356    82.752079    435.85637 
   62200    685.37225   0.33185265    7.8861226   0.10027026         0.01    4.0255921  0.011185549     83.92084    434.73163 
   62300    686.46016   0.33278319     7.898658   0.10027026         0.01    4.1336776  0.010125164    82.565072    433.61851 
   62400    687.50767   0.33352033    7.9109396   0.10027026         0.01    4.0311272  0.010778307     83.45643    432.49728 
   62500    688.65292   0.33337273    7.9249856   0.10027026         0.01     3.819007  0.011429334    84.015683    431.37101 
   62600    689.71815   0.33206517    7.9369735   0.10027026         0.01    3.4287917   0.01007077    82.949005    430.25369 
   62700    690.72658   0.33316919    7.9484538   0.10027026         0.01    3.7912793  0.010732621    82.351622    429.14129 
   62800     691.7727   0.33389413    7.9613215   0.10027026         0.01    3.5745634  0.010618611    84.538071    428.00996 
   62900    692.85334   0.33276777    7.9737459   0.10027026         0.01    3.6514618   0.01193083    84.106338    426.88205 
   63000    693.98994    0.3318157    7.9863549   0.10027026         0.01    3.9355693  0.010621017    83.360161     425.7602 
   63100     695.0183   0.33238878    7.9977671   0.10027026         0.01    3.8217818  0.010964792    83.192867    424.63951 
   63200    696.08857   0.33271879    8.0090086   0.10027026         0.01    3.5252154  0.010737064    82.807708    423.52181 
   63300    697.11732   0.33247368    8.0205608   0.10027026         0.01    3.9200769  0.011066601    84.515926    422.38969 
   63400     698.2209   0.33271196    8.0321948   0.10027026         0.01     4.035316  0.011058781    84.394812    421.25838 
   63500    699.29416   0.33179868    8.0441221   0.10027026         0.01    3.4906035  0.010984271      82.9118    420.13908 
   63600    700.37006   0.33165934    8.0562391   0.10027026         0.01    3.7677471  0.010851393    82.080634    419.02651 
   63700    701.49056   0.33367556    8.0675504   0.10027026         0.01    3.4210937  0.011042425    83.270197    417.90368 
   63800    702.64363   0.33319375    8.0793828   0.10027026         0.01    3.7482771  0.011187689    82.458444    416.78731 
   63900    703.76872   0.33307721    8.0928029   0.10027026         0.01     3.869377  0.010769786    83.943397    415.65853 
   64000      704.878   0.33174973    8.1056934   0.10027026         0.01    3.8727013  0.011547824    82.741109    414.53928 
   64100    705.94633   0.33216213    8.1166112   0.10027026         0.01    4.1340526 0.0098701948    80.959148    413.43466 
   64200    706.99181   0.33270845       8.1275   0.10027026         0.01     4.478936   0.01075489    82.283865    412.31854 
   64300    708.06134   0.33135274    8.1387477   0.10027026         0.01    4.2240629 0.0077443968    82.360241    411.20148 
   64400    708.90431   0.33218126    8.1482195   0.10027026         0.01    4.2822157 0.0088590124    82.214334    410.08532 
   64500    709.90145   0.33177762    8.1591708   0.10027026         0.01    4.0350433  0.010206666    83.278993    408.96028 
   64600    710.96132   0.33248711    8.1699538   0.10027026         0.01    3.9007229  0.011018709    83.908803    407.83007 
   64700    712.04974    0.3327021    8.1819649   0.10027026         0.01     3.863813  0.010447202    84.127863    406.69798 
   64800    713.10231   0.33324827    8.1935642   0.10027026         0.01    4.1431711  0.010516697    83.185261    405.57303 
   64900    714.14314   0.33299404    8.2058411   0.10027026         0.01    4.3556188 0.0099449658     82.87751    404.45026 
   65000    715.09884   0.33318201    8.2163688   0.10027026         0.01    4.4207367 0.0096564566    83.051775    403.32587 
   65100    716.09774   0.33188698    8.2270266   0.10027026         0.01    4.1686017  0.010111447    83.022004    402.20146 
   65200    717.15883   0.33273002    8.2372089   0.10027026         0.01    3.7912705  0.011082387     83.51923    401.07298 
   65300     718.2685    0.3332053    8.2475715   0.10027026         0.01     4.326862  0.011282764     84.01506    399.94053 
   65400      719.374   0.33237966    8.2592031   0.10027026         0.01    3.7231685  0.011747918    83.846253    398.80918 
   65500    720.46959   0.33227676     8.269975   0.10027026         0.01    4.0195931  0.010619444     82.88719     397.6849 
   65600    721.51856   0.33320976     8.280812   0.10027026         0.01    3.8891342  0.010453784    83.669476    396.55447 
   65700    722.65164   0.33232707    8.2918842   0.10027026         0.01    4.0187826  0.011149494    84.281868     395.4193 
   65800    723.74507   0.33246311    8.3025042   0.10027026         0.01    3.7652167  0.010803084    84.022583    394.28587 
   65900    724.81947   0.33438187    8.3128615   0.10027026         0.01    3.6018488  0.010621177    83.087197    393.15921 
   66000    725.85176   0.33308851    8.3233417   0.10027026         0.01    3.6897029 0.0095775733    81.232978    392.04647 
   66100    726.82277   0.33245898    8.3329172   0.10027026         0.01    3.9571278 0.0096366728    82.785709    390.92152 
   66200    727.86794   0.33218487    8.3428872   0.10027026         0.01    4.0329797  0.011306447    83.615534    389.79021 
   66300    729.00313   0.33343932    8.3543027   0.10027026         0.01    3.6738847  0.010682573     83.50089    388.65954 
   66400    730.07175   0.33268062     8.365605   0.10027026         0.01    3.8995438  0.011158144    82.396759    387.53678 
   66500    731.10606   0.33144442    8.3763089   0.10027026         0.01    3.4132387  0.011089352    82.812384    386.41068 
   66600    732.21013   0.33152787    8.3877695   0.10027026         0.01    3.7991331  0.010487504    82.502058    385.28662 
   66700    733.28396   0.33266545    8.3995162   0.10027026         0.01    3.7948512  0.011030021    83.699647    384.15363 
   66800    734.38465    0.3321245    8.4107175   0.10027026         0.01    4.0428346  0.010740603     82.11975    383.03189 
   66900    735.45745   0.33137755    8.4213516   0.10027026         0.01    3.9390041  0.010903848    82.022544    381.91057 
   67000    736.56536   0.33134351    8.4325432   0.10027026         0.01    3.7465667  0.011254631    81.621587    380.79191 
   67100    737.69772   0.33226826    8.4446213   0.10027026         0.01    3.6312016   0.01147074     82.58219    379.66594 
   67200     738.7828    0.3317148    8.4552803   0.10027026         0.01    4.1256152  0.011032286    84.045043    378.52943 
   67300    739.86691   0.33168923    8.4662649   0.10027026         0.01    3.6759744  0.010925181     82.84284    377.40116 
   67400    740.97287   0.33231564    8.4775559   0.10027026         0.01    4.0146154  0.011056176    81.858846    376.27966 
   67500    742.08839   0.33226513    8.4884782   0.10027026         0.01    4.1893972  0.011389076    82.859042    375.15078 
   67600    743.18589   0.33147667    8.4990062   0.10027026         0.01    4.5159206  0.010064587    81.893768    374.02847 
   67700    744.22691   0.33049422    8.5093543   0.10027026         0.01    4.2226572  0.010624743    82.835985    372.89926 
   67800     745.3037     0.330363     8.520679   0.10027026         0.01    3.8220478  0.011060241    82.275472    371.77371 
   67900    746.43774   0.33038644    8.5332608   0.10027026         0.01    3.9387403  0.010275556    82.265386    370.64797 
   68000    747.44711   0.33250501    8.5437096   0.10027026         0.01    3.7301568  0.010677114    81.412539    369.52796 
   68100    748.45685   0.33200585     8.553674   0.10027026         0.01    4.0121652   0.01087344    82.220748    368.40198 
   68200    749.59862   0.33099654    8.5659967   0.10027026         0.01    3.7743792  0.010541407    82.965035    367.27064 
   68300    750.71045   0.33174387    8.5776163   0.10027026         0.01     3.791157  0.011292178    80.088874    366.15918 
   68400    751.81565   0.33269818    8.5899729   0.10027026         0.01    4.1417408  0.011179833    83.623085    365.02294 
   68500     752.8713   0.33368212    8.6017681   0.10027026         0.01    4.1140833  0.010836592    83.079248    363.89012 
   68600     753.9775   0.33337267    8.6132556   0.10027026         0.01    3.9068779  0.010902954    84.371673    362.74866 
   68700    754.97055   0.33215675    8.6236756   0.10027026         0.01    3.9620129 0.0098581601    83.318812    361.61389 
   68800    755.99758   0.33145247    8.6356603   0.10027026         0.01     4.189538  0.010593305    84.186153    360.47333 
   68900    757.05048   0.33179575    8.6472528   0.10027026         0.01    3.7600678  0.010353787    84.063066    359.33341 
   69000    758.00047   0.33198349    8.6576366   0.10027026         0.01     4.910708 0.0089707908    83.448426    358.19728 
   69100    758.89316    0.3314421    8.6672698   0.10027026         0.01    5.1807467 0.0088964784    84.034956    357.05724 
   69200    759.79159    0.3322428    8.6777341   0.10027026         0.01    4.3066726 0.0088478242    83.498231    355.92045 
   69300    760.64447    0.3316456    8.6873635   0.10027026         0.01    4.3905913  0.008381569    84.261837    354.77869 
   69400    761.52951   0.33257556    8.6969616   0.10027026         0.01    4.5304725 0.0082604114    84.289456    353.63662 
   69500    762.57868   0.33253909    8.7088114   0.10027026         0.01    4.0159489    0.0102155    83.588688    352.49878 
   69600    763.63385   0.33345359    8.7206388   0.10027026         0.01    3.9008719  0.010869194    84.778235    351.35345 
   69700    764.74679   0.33213043    8.7328092   0.10027026         0.01     4.330649  0.011222995    83.949462    350.21308 
   69800    765.88863    0.3320147     8.746113   0.10027026         0.01    3.9294809 0.0099433091    83.861877    349.07311 
   69900    766.99072   0.33072585    8.7586624   0.10027026         0.01    3.8891964  0.011435328     84.59241    347.92855 
   70000     768.1048   0.33150522    8.7712866   0.10027026         0.01    4.3098697  0.011182267    83.993743    346.78749 
   70100    769.11682   0.33176825    8.7834081   0.10027026         0.01    4.2847586 0.0095569151    83.257569    345.65079 
   70200    770.13488   0.33272861    8.7949564   0.10027026         0.01    4.3695892  0.010208901    83.195573    344.51427 
   70300    771.19944   0.33205861    8.8074274   0.10027026         0.01    4.0811163  0.010553007    84.640241    343.36891 
   70400    772.30154   0.33321839    8.8199142   0.10027026         0.01    3.8708757  0.011214239     83.68769     342.2291 
   70500    773.35967   0.33184523    8.8324467   0.10027026         0.01    3.7713905  0.010351853     82.93854    341.09364 
   70600    774.41194   0.33173033    8.8447477   0.10027026         0.01     4.112913  0.010636787     85.23274    339.94448 
   70700    775.37941   0.33150497    8.8552146   0.10027026         0.01    4.8318993 0.0096074186    83.324721    338.80638 
   70800    776.36118   0.33250014    8.8659985   0.10027026         0.01    4.0782604 0.0095198266    83.224594     337.6687 
   70900    777.37577   0.33286718    8.8771553   0.10027026         0.01    3.9892244  0.010677931    83.381621    336.52991 
   71000    778.46828   0.33334051    8.8890808   0.10027026         0.01    3.7879155  0.010403255     82.55082    335.39588 
   71100    779.50777   0.33286068    8.9004968   0.10027026         0.01    3.9384641  0.011251353    82.963329    334.25918 
   71200    780.58812   0.33280198    8.9130895   0.10027026         0.01    3.6980478  0.011470137    84.726157    333.11215 
   71300    781.73498   0.33239658    8.9249297   0.10027026         0.01    3.6064283 0.0094180114    84.393233    331.96689 
   71400    782.72436   0.33170766    8.9362121   0.10027026         0.01    3.8123793  0.010022658    83.803048    330.82487 
   71500    783.77262   0.33190075    8.9475417   0.10027026         0.01    3.4328789  0.011682336     85.14182    329.67523 
   71600    784.83942   0.33121556    8.9589465   0.10027026         0.01     3.651487 0.0098461266    83.744736    328.53329 
   71700    785.88566    0.3324047    8.9696935   0.10027026         0.01     4.063228  0.010880341    84.956859    327.38448 
   71800    786.96716   0.33301837    8.9818996   0.10027026         0.01    3.8205584  0.011019096    84.093674    326.24034 
   71900    788.03955   0.33307003     8.994612   0.10027026         0.01    3.9575991  0.011071805    83.400622    325.09993 
   72000    789.11088   0.33151442    9.0061832   0.10027026         0.01    3.9241105  0.011011822     83.04357    323.96136 
   72100     790.1914   0.33237445    9.0177146   0.10027026         0.01    3.8660133  0.010863764    82.552315    322.82539 
   72200    791.28295   0.33208491     9.029877   0.10027026         0.01    3.9220297  0.010798282    84.366191    321.67918 
   72300    792.24896   0.33235463    9.0400476   0.10027026         0.01    4.0276583 0.0096484532     83.51923    320.53747 
   72400    793.18333   0.33245711      9.04979   0.10027026         0.01    5.2368681 0.0095441488    84.071559     319.3926 
   72500    794.12696   0.33128222    9.0596231   0.10027026         0.01    4.4091826 0.0097823996    83.802914    318.24906 
   72600     795.0996   0.33263763    9.0694129   0.10027026         0.01    4.3221054   0.01033056    81.263937    317.11945 
   72700    796.22516    0.3313102    9.0815276   0.10027026         0.01      4.09683  0.011533449    83.322569    315.97814 
   72800    797.32131   0.33325596    9.0921704   0.10027026         0.01    3.8142821  0.011277303    83.938458    314.83339 
   72900    798.42435   0.33289303    9.1037304   0.10027026         0.01    3.7503922  0.010723016     82.52256     313.6961 
   73000    799.47925   0.33264741    9.1142052   0.10027026         0.01    4.5729053  0.010630157    83.430798    312.55373 
   73100    800.57127   0.33259123    9.1258269   0.10027026         0.01    4.3223655  0.010723312    83.204172    311.41241 
   73200    801.63652   0.33089866    9.1370377   0.10027026         0.01    4.5645713 0.0082375689    84.103639    310.26622 
   73300    802.51431   0.33234617     9.146676   0.10027026         0.01    4.5049773 0.0089629982    84.322872    309.11879 
   73400    803.41245   0.33269208    9.1563306   0.10027026         0.01    4.2341494 0.0091008499    83.955158    307.97313 
   73500    804.40327    0.3323849     9.166537   0.10027026         0.01    4.4158443  0.010908212    83.536397     306.8295 
   73600    805.49427   0.33095001    9.1777231   0.10027026         0.01    4.0985459 0.0094956798     83.44069    305.68622 
   73700    806.56893    0.3315151    9.1893223   0.10027026         0.01     4.278661  0.010471365    83.541921    304.54227 
   73800    807.65514    0.3315175     9.201407   0.10027026         0.01    3.9618024  0.010126008    82.933588     303.4013 
   73900    808.76475   0.33100877    9.2134165   0.10027026         0.01    4.1138222  0.011495033    80.926766    302.27071 
   74000    809.88551   0.33120388    9.2262982   0.10027026         0.01    4.4033362  0.011339619    82.371725    301.13221 
   74100    810.99222   0.33150898    9.2400874   0.10027026         0.01    4.2144073  0.010685736    81.749906    299.99675 
   74200    812.09552   0.33077841    9.2532165   0.10027026         0.01    4.1027536  0.010441355    82.761859    298.85584 
   74300    813.15106    0.3317645     9.265306   0.10027026         0.01    4.3970824  0.010893081    83.844359    297.70936 
   74400    814.20586   0.33276328    9.2761995   0.10027026         0.01    4.3827011  0.010920615    83.351944    296.56518 
   74500    815.32053   0.33255363     9.288822   0.10027026         0.01    4.3077821  0.011134548    83.733166    295.41898 
   74600    816.37823   0.33205258    9.3010593   0.10027026         0.01    4.1344605  0.009846549    83.935283    294.27167 
   74700    817.39075   0.33080546     9.314042   0.10027026         0.01    4.1919353  0.010562857    82.260191    293.13246 
   74800    818.46631   0.33223467    9.3266213   0.10027026         0.01    4.0895198 0.0099320918    83.705744    291.98598 
   74900    819.46725   0.33235573    9.3388005   0.10027026         0.01    3.9672483  0.010557415    85.117682    290.83272 
   75000    820.48768   0.33228937    9.3506184   0.10027026         0.01    4.3720108 0.0098503576    82.628117    289.69121 
   75100    821.43796   0.33107221    9.3609652   0.10027026         0.01    4.8500727 0.0093689367    82.725638    288.54904 
   75200    822.46729   0.33339163    9.3728181   0.10027026         0.01    4.2644466  0.010400928    84.358776    287.39897 
   75300    823.55427   0.33182898    9.3851422   0.10027026         0.01    4.0288981  0.011289438     83.72643    286.25175 
   75400    824.66406   0.33192123    9.3977583   0.10027026         0.01    4.3157891  0.011444314    84.929232    285.09888 
   75500    825.77835   0.33192347    9.4098877   0.10027026         0.01    3.8484667  0.011759895    81.324284    283.96289 
   75600    826.87609   0.33149339    9.4219699   0.10027026         0.01    3.6746112   0.01081783    80.337477    282.83152 
   75700    827.93598   0.33157401    9.4331323   0.10027026         0.01    3.7466134  0.011064023    81.076378    281.69621 
   75800    829.03284    0.3317663    9.4450454   0.10027026         0.01    3.9637436  0.011080827    78.971658    280.57114 
   75900    830.10821   0.33269732     9.456309   0.10027026         0.01    4.1296466  0.010695561    79.412609    279.44347 
   76000    831.16137   0.33193128    9.4686377   0.10027026         0.01    4.0452457  0.010299151     79.37295    278.31564 
   76100    832.19017   0.33264337    9.4806517   0.10027026         0.01    4.3146667  0.010740839     78.87977    277.18994 
   76200     833.2499    0.3327238    9.4922535   0.10027026         0.01    3.9876147  0.010691568    79.484499    276.06086 
   76300    834.27943   0.33171896    9.5042494   0.10027026         0.01    4.5981925  0.010043533    80.350851    274.92723 
   76400    835.31251   0.33218871    9.5160531   0.10027026         0.01    4.3816167  0.010853749    79.205091    273.79886 
   76500    836.40868   0.33146863     9.528066   0.10027026         0.01    4.4438428  0.011058051    81.085908    272.66115 
   76600    837.51752    0.3319501    9.5402193   0.10027026         0.01    4.3138419  0.010489922    82.785774    271.51546 
   76700    838.52594   0.33268622    9.5504549   0.10027026         0.01    4.4703109 0.0096184057    82.516147     270.3708 
   76800    839.50756   0.33148916    9.5611674   0.10027026         0.01    4.3088069  0.010418636    84.707146    269.21649 
   76900    840.46231   0.33288439    9.5700809   0.10027026         0.01    4.3946286 0.0092393395    82.399268    268.07206 
   77000    841.38269   0.33183742    9.5800197   0.10027026         0.01     4.372265 0.0093596634    81.891162    266.92969 
   77100    842.36925   0.33079473    9.5905226   0.10027026         0.01    3.9158392  0.011096975    81.711619    265.78791 
   77200    843.48768   0.33187961    9.6010989   0.10027026         0.01    4.1580985  0.011569312    83.491832    264.63821 
   77300    844.53348   0.33198284    9.6116734   0.10027026         0.01    4.0901865  0.010118697    84.200535    263.48543 
   77400    845.60912   0.33105571    9.6231781   0.10027026         0.01    4.1423531  0.010324794    82.623803    262.33918 
   77500     846.6585   0.33235276    9.6332311   0.10027026         0.01    4.2717148  0.010486966    83.679208    261.18833 
   77600    847.75091   0.33200879    9.6446846   0.10027026         0.01    3.9453075  0.011301762    82.584564    260.04194 
   77700     848.8362   0.33213207     9.655809   0.10027026         0.01     3.800047   0.01052712     84.08039     258.8892 
   77800    849.90041   0.33242949    9.6675626   0.10027026         0.01    4.0872487  0.010294167     81.53879    257.74694 
   77900     850.9222    0.3309477    9.6784533   0.10027026         0.01    3.9622082 0.0094950479    79.664136    256.61266 
   78000       851.88   0.33110187    9.6895763   0.10027026         0.01     4.268895 0.0092256705    78.979153    255.48113 
   78100     852.8629   0.33215543    9.7003803   0.10027026         0.01    3.8385377  0.009653958    81.792104    254.33705 
   78200    853.88336   0.33190471    9.7130542   0.10027026         0.01    3.8604077  0.010740677    84.099693    253.18342 
   78300    854.97095   0.33231547    9.7252272   0.10027026         0.01    3.3796729  0.010797909    83.796167    252.03089 
   78400    856.10775   0.33222324    9.7382547   0.10027026         0.01    3.9363938  0.010883928    83.463039    250.87957 
   78500    857.18741   0.33293977    9.7507615   0.10027026         0.01    3.8976823  0.010232067    84.426868    249.72439 
   78600    858.17489   0.33313168    9.7628567   0.10027026         0.01    4.2206733  0.010100751    83.700232    248.57193 
   78700    859.23832   0.33271022    9.7744713   0.10027026         0.01    3.7575408  0.010564944    83.713179    247.41931 
   78800    860.33671   0.33292574    9.7862001   0.10027026         0.01     3.745892  0.011196381    84.215413    246.26466 
   78900    861.33726   0.33339485    9.7963787   0.10027026         0.01    4.8651624 0.0095339496    81.421832    245.12084 
   79000    862.40079   0.33303928    9.8076597   0.10027026         0.01    3.9119322  0.010835775    79.797815    243.98344 
   79100    863.50283   0.33233218      9.81932   0.10027026         0.01     3.824942  0.011174589    80.864076    242.84138 
   79200     864.5972   0.33262084    9.8312724   0.10027026         0.01    4.0654358  0.010851367    83.570817    241.68856 
   79300    865.70104   0.33316284    9.8437902   0.10027026         0.01    4.4905933  0.010989498    82.941853    240.53801 
   79400    866.79856   0.33277151    9.8558303   0.10027026         0.01    3.8075086  0.011190006    83.413692    239.38554 
   79500    867.89775   0.33278354    9.8685737   0.10027026         0.01    3.7225091  0.011065053    83.811689    238.23149 
   79600    868.94341   0.33248792    9.8806511   0.10027026         0.01    4.2900838  0.010229686    83.968621    237.07677 
   79700    870.01883   0.33216045    9.8931472   0.10027026         0.01    4.2081856  0.010357994    84.389175    235.92045 
   79800    871.11943   0.33157217    9.9051068   0.10027026         0.01    4.0130491  0.010062469    84.357724    234.76417 
   79900    872.22006   0.33211336    9.9174503   0.10027026         0.01    3.6188973  0.011221085    81.020999    233.62009 
   80000    873.30854   0.33314938    9.9297306   0.10027026         0.01    3.7832992  0.010922774    82.758985    232.46931 
   80100    874.39612   0.33258519    9.9414257   0.10027026         0.01    4.0228393  0.011227214    82.569428    231.31908 
   80200    875.47775   0.33205613     9.953552   0.10027026         0.01    4.4868525  0.010603352    82.778373    230.16794 
   80300    876.55839   0.33267926    9.9663233   0.10027026         0.01    4.0766705  0.010990642    84.143981    229.01185 
   80400    877.63046   0.33178834    9.9778134   0.10027026         0.01    4.2894043  0.010288381    82.647443    227.86092 
   80500    878.71275   0.33191365    9.9897977   0.10027026         0.01    3.8597603  0.010917505    80.139173    226.71902 
   80600    879.79158   0.33137947    10.001969   0.10027026         0.01    4.8229244 0.0099339147    82.206567    225.56931 
   80700    880.81576   0.33187809    10.013772   0.10027026         0.01    4.7452192  0.010206306    82.399122    224.41875 
   80800    881.87999   0.33262554     10.02427   0.10027026         0.01    3.7599104  0.010547483    82.388342    223.26807 
   80900    882.92825   0.33255308    10.035723   0.10027026         0.01    3.9171502  0.010481706    79.774973    222.12662 
   81000    884.02231   0.33250912    10.047522   0.10027026         0.01    4.3837394  0.011114626     80.30536    220.98295 
   81100    885.08842   0.33204509    10.059704   0.10027026         0.01    4.1392848 0.0096637032    79.996033    219.84016 
   81200    886.18123   0.33248309    10.071871   0.10027026         0.01    3.6114758  0.011409674    82.185868    218.68939 
   81300    887.27787   0.33245931    10.084616   0.10027026         0.01    4.0531413  0.010864852    79.112734    217.54933 
   81400    888.34795   0.33287735    10.096989   0.10027026         0.01    4.4613312  0.010380037    80.878936    216.40265 
   81500    889.40938   0.33278689    10.107455   0.10027026         0.01    4.2196476  0.011132711    80.948851    215.25552 
   81600    890.48431   0.33196898    10.120032   0.10027026         0.01    3.4888657  0.011072188    79.883501    214.11188 
   81700    891.54943   0.33282482    10.131603   0.10027026         0.01    3.9435536  0.011053373    80.301409    212.96652 
   81800    892.66192   0.33189851    10.143962   0.10027026         0.01    4.2983544  0.010708051    81.680399    211.81624 
   81900    893.79208   0.33311579    10.156849   0.10027026         0.01    3.7673485  0.011623589    83.909021    210.65858 
   82000    894.91122   0.33185907    10.169594   0.10027026         0.01    3.6470498  0.010966764    81.464926     209.5087 
   82100    896.01354   0.33232652    10.181781   0.10027026         0.01    3.8808907   0.01028018    81.798389    208.35753 
   82200    897.06601    0.3318775    10.193768   0.10027026         0.01     3.542215  0.010968227    80.106251    207.21179 
   82300    898.14317   0.33193312    10.206295   0.10027026         0.01     3.856299  0.010090978     81.99995    206.05959 
   82400    899.15395   0.33250955    10.218118   0.10027026         0.01    4.0471964 0.0089193466    82.282719    204.90634 
   82500    900.11635   0.33200637     10.22979   0.10027026         0.01    4.2426428  0.010007496      84.0123    203.74763 
   82600    901.08391   0.33228144    10.241386   0.10027026         0.01    3.5536428  0.010536098    82.624617    202.59305 
   82700    902.13986   0.33206809    10.253881   0.10027026         0.01    3.7497742 0.0097935288    84.093674    201.43391 
   82800    903.13178   0.33293619    10.264764   0.10027026         0.01    3.6586659 0.0097938588    82.967875    200.27806 
   82900     904.1006    0.3321881    10.276397   0.10027026         0.01     4.171595 0.0096439865    81.950011    199.12517 
   83000    905.11635   0.33154104    10.288667   0.10027026         0.01    4.4233676 0.0099849056    81.762272    197.97269 
   83100     906.1696   0.33194266    10.301341   0.10027026         0.01    4.4161961  0.011131915    82.455461    196.81796 
   83200    907.25225   0.33191438     10.31375   0.10027026         0.01    4.0552787  0.010906441     82.82231      195.662 
   83300    908.35475   0.33233114    10.326762   0.10027026         0.01    3.9322704   0.01152075    82.548708    194.50671 
   83400    909.44047   0.33378202    10.339057   0.10027026         0.01     4.163706  0.010510155    82.176835    193.35239 
   83500    910.45169   0.33291363     10.35129   0.10027026         0.01    4.3289388   0.01083384    81.535081    192.19981 
   83600     911.4957   0.33280663     10.36354   0.10027026         0.01    4.4186596  0.010980361    82.031832    191.04559 
   83700     912.6215    0.3329434    10.377219   0.10027026         0.01    4.0338056  0.011267909    83.394138    189.88734 
   83800    913.70045   0.33314958    10.389499   0.10027026         0.01    3.8986317  0.010647099    83.258874    188.72937 
   83900    914.72249    0.3324831    10.401693   0.10027026         0.01    3.7321771  0.010468002    83.741576    187.56997 
   84000    915.82637   0.33416135    10.414441   0.10027026         0.01    3.9492799  0.010920278    82.838521    186.41296 
   84100    916.86964    0.3334169    10.426074   0.10027026         0.01    4.9906343  0.009829291    84.376001    185.25168 
   84200    917.85915   0.33136476     10.43778   0.10027026         0.01    4.0751886  0.010701839    83.139619    184.09365 
   84300    918.95292   0.33219531    10.450312   0.10027026         0.01    4.1555219  0.010292611    83.115368    182.93558 
   84400    920.00232    0.3315278    10.462582   0.10027026         0.01    3.9431042  0.011783397    82.291178    181.77962 
   84500    921.08053   0.33176259    10.474952   0.10027026         0.01    4.0310093  0.010956224    80.018116    180.62986 
   84600    922.16484   0.33220766    10.487788   0.10027026         0.01    3.7573417  0.011066086    80.077773     179.4797 
   84700    923.26869   0.33226903    10.499431   0.10027026         0.01    3.9335141  0.011140884     79.78904    178.33011 
   84800    924.36519   0.33138025    10.511518   0.10027026         0.01    4.5904044  0.010545665    81.320121    177.17605 
   84900    925.42067   0.33304138    10.523072   0.10027026         0.01     4.254794  0.010314004    84.469868    176.01366 
   85000    926.41639   0.33206356    10.533796   0.10027026         0.01    4.1217032  0.010979869    81.650251    174.85844 
   85100    927.51861   0.33288914     10.54599   0.10027026         0.01    4.3346859  0.010224119    83.529426    173.69822 
   85200    928.62997   0.33251933    10.557922   0.10027026         0.01    3.7929526  0.010667562    84.961265    172.53442 
   85300    929.72903   0.33280029    10.569199   0.10027026         0.01    4.0871511  0.010479845    83.964452    171.37299 
   85400     930.7585   0.33238393    10.580246   0.10027026         0.01    4.1530197  0.010880225    84.407074    170.21042 
   85500    931.79901   0.33288542    10.591025   0.10027026         0.01    4.4064886   0.01093653    83.331807     169.0504 
   85600    932.89693   0.33154559     10.60308   0.10027026         0.01    3.8203364  0.011821354     83.04089    167.89098 
   85700    934.05964   0.33184415    10.616405   0.10027026         0.01    3.8286988  0.010431021    82.572484    166.73261 
   85800    935.13235   0.33281039    10.627614   0.10027026         0.01    3.9180397  0.010692878    83.456297    165.57199 
   85900    936.13388   0.33178918    10.637737   0.10027026         0.01    4.3311584   0.01015797    83.416479    164.41137 
   86000    937.17195   0.33292273    10.648878   0.10027026         0.01    3.6000948  0.011462313    82.049934    163.25392 
   86100    938.30726   0.33427715    10.660965   0.10027026         0.01    3.9520439   0.01121684    81.877079    162.09674 
   86200    939.41942   0.33189365    10.672498   0.10027026         0.01     4.000576  0.011954915    85.042471    160.93213 
   86300    940.46922   0.33208506    10.684277   0.10027026         0.01    4.6353346 0.0096328389    84.043089    159.76971 
   86400    941.49038   0.33213912    10.695585   0.10027026         0.01    4.0931439  0.010976263    83.623986    158.60818 
   86500    942.56936   0.33249943    10.706597   0.10027026         0.01    3.9832444  0.010658263    85.591159    157.44227 
   86600    943.62507   0.33333174     10.71763   0.10027026         0.01    4.2445031  0.010288762     83.85554     156.2801 
   86700    944.70232   0.33228228    10.729015   0.10027026         0.01     4.040984  0.010825404    84.872571    155.11566 
   86800    945.77931   0.33265896    10.740358   0.10027026         0.01    4.1113738   0.01106319    85.408556    153.95007 
   86900    946.86735   0.33202144    10.752466   0.10027026         0.01    4.0103441   0.01117681    83.883111    152.78768 
   87000    947.98516   0.33188367    10.764168   0.10027026         0.01     3.942772  0.011476264    84.904355    151.62308 
   87100    949.04795   0.33191275     10.77504   0.10027026         0.01    3.6933843  0.010112229    84.404985    150.45948 
   87200    950.10689   0.33234023    10.786174   0.10027026         0.01    4.0187172  0.011061608    85.050144    149.29451 
   87300    951.15187   0.33182834    10.796907   0.10027026         0.01    4.0391591  0.010688412    84.298333    148.13104 
   87400      952.226   0.33237997    10.807437   0.10027026         0.01    4.2411682  0.011347681    83.646183    146.96885 
   87500    953.29939   0.33218211    10.818126   0.10027026         0.01    4.2665198    0.0101232    84.407057    145.80505 
   87600    954.31271   0.33148995    10.828505   0.10027026         0.01    3.7476791  0.011672608    83.807469     144.6424 
   87700    955.40116   0.33253709    10.839638   0.10027026         0.01    3.8891751  0.011355673     82.70895     143.4819 
   87800    956.48496   0.33283501    10.850313   0.10027026         0.01    3.9606472  0.011360554    79.332085    142.32844 
   87900    957.52468   0.33156506    10.861749   0.10027026         0.01    4.1460978  0.010772169    81.117209    141.17092 
   88000    958.61685   0.33201197    10.872753   0.10027026         0.01    4.1020618  0.011090094    84.039199    140.00739 
   88100     959.7316   0.33074105    10.884337   0.10027026         0.01    4.4008695  0.010924726    83.661149    138.84452 
   88200    960.70737    0.3318779    10.893656   0.10027026         0.01    4.2232842  0.010892824    83.799599    137.68131 
   88300    961.77435   0.33131609    10.904817   0.10027026         0.01     4.227086  0.011021429    84.700543    136.51635 
   88400    962.85319   0.33106594    10.915357   0.10027026         0.01    3.8423425  0.010508708    83.042337    135.35446 
   88500    963.89096   0.33138081    10.926341   0.10027026         0.01    4.1910521 0.0099412235    83.666606    134.19129 
   88600    964.86798   0.33177412    10.936029   0.10027026         0.01    4.2304678  0.010422399    83.946992    133.02755 
   88700    965.96838   0.33233269    10.947937   0.10027026         0.01    3.9988948  0.011474835    84.738721    131.86232 
   88800    966.98869   0.33156054    10.958349   0.10027026         0.01    4.8019896  0.010209554    82.913177    130.70033 
   88900    968.00641   0.33081844      10.9689   0.10027026         0.01    4.5727198  0.010593101    84.350107    129.53568 
   89000    969.05573   0.33247568    10.980395   0.10027026         0.01    3.9907868  0.010606588    82.987409    128.37339 
   89100    970.10155   0.33250937     10.99122   0.10027026         0.01    4.1503124  0.011619043    82.304468    127.21223 
   89200    971.20122   0.33360754    11.003398   0.10027026         0.01    4.3839897  0.011015288    81.238328    126.05288 
   89300    972.28382   0.33252394    11.016287   0.10027026         0.01    4.1598703  0.010186293    79.619857    124.89636 
   89400    973.33443     0.332122    11.027431   0.10027026         0.01    4.1648797 0.0098680789    82.457909     123.7345 
   89500    974.36473   0.33189071    11.039341   0.10027026         0.01    3.8282777  0.011539177    83.311812    122.57107 
   89600    975.45022   0.33252667    11.051336   0.10027026         0.01    4.0126172  0.010519455    83.160637     121.4078 
   89700     976.4814   0.33369951    11.062946   0.10027026         0.01    3.9324228  0.010146975    84.340066    120.24252 
   89800     977.4982   0.33247876    11.074834   0.10027026         0.01    4.1751156 0.0097734484    83.132154    119.07915 
   89900    978.58694   0.33301535    11.085282   0.10027026         0.01    4.1564818  0.010943822    81.632389    117.91817 
   90000     979.6915   0.33307867    11.097039   0.10027026         0.01    3.8945424  0.011320242    82.914406    116.75495 
   90100    980.81692   0.33136699    11.110262   0.10027026         0.01      4.21072  0.011089653    82.777965    115.59185 
   90200    981.91774   0.33161788    11.122305   0.10027026         0.01    4.4493221  0.010259423    82.596224    114.42894 
   90300    982.97031   0.33236801    11.133806   0.10027026         0.01    4.0212351  0.010216102    83.520561    113.26449 
   90400     984.0406    0.3323236     11.14481   0.10027026         0.01    3.8416334    0.0107593    82.456758     112.1016 
   90500    985.03309   0.33314407    11.156385   0.10027026         0.01    4.3935936  0.010187974     84.26353    110.93587 
   90600    986.09401   0.33115649    11.168826   0.10027026         0.01    4.3501421  0.010973463    82.326342      109.773 
   90700    987.17214   0.33132016    11.181105   0.10027026         0.01    3.9894594  0.010632275    83.426218    108.60836 
   90800    988.17474   0.33256398    11.192482   0.10027026         0.01     3.996476 0.0092324676    83.350486    107.44376 
   90900    989.20019   0.33322305     11.20408   0.10027026         0.01     3.781384  0.010311547    82.655212     106.2801 
   91000    990.22795   0.33382759    11.216144   0.10027026         0.01     4.097235  0.011789461    83.812325    105.11468 
   91100    991.33188   0.33274443    11.228781   0.10027026         0.01    3.8682441  0.010624214    82.439206    103.95114 
   91200    992.38712   0.33254649    11.240286   0.10027026         0.01    4.0738907  0.010290889    82.564048    102.78732 
   91300    993.45439   0.33231047    11.251671   0.10027026         0.01    4.1447277  0.010668381    84.010954    101.62141 
   91400    994.51383   0.33232277    11.262659   0.10027026         0.01    4.0981967  0.010226196    82.694045    100.45722 
   91500     995.5857   0.33197889     11.27464   0.10027026         0.01    4.2810304  0.010036842    83.277323    99.292154 
   91600    996.53297   0.33352622    11.284453   0.10027026         0.01    4.9967136 0.0089908201    83.129601    98.127202 
   91700    997.41562   0.33312772     11.29407   0.10027026         0.01    4.4858551 0.0089249508    82.674078    96.962767 
   91800    998.31538    0.3331224    11.304186   0.10027026         0.01    4.2703953 0.0089256627    82.695056    95.798206 
   91900    999.19889   0.33193938    11.313651   0.10027026         0.01    3.8843639 0.0090572673    81.867106    94.634626 
   92000    1000.1621   0.33334056    11.324839   0.10027026         0.01    3.8021527 0.0096565838    81.851945     93.47094 
   92100    1001.2068   0.33342585    11.336254   0.10027026         0.01    3.7405086  0.010077956    82.812581    92.305912 
   92200    1002.0724   0.33373342    11.345664   0.10027026         0.01    4.7786586 0.0084803701    83.183116    91.140337 
   92300    1002.9884   0.33214564    11.355651   0.10027026         0.01    4.3034106   0.01057197    82.106054    89.975999 
   92400    1004.0357   0.33137412    11.366164   0.10027026         0.01    4.0979596  0.010665304     81.19835    88.812664 
   92500    1005.1343   0.33270243    11.377686   0.10027026         0.01    3.4914644  0.011576549     83.99741    87.645854 
   92600    1006.1705   0.33169472    11.388198   0.10027026         0.01    4.2000167  0.010558252    84.064549    86.478917 
   92700    1007.1925   0.33208468    11.400072   0.10027026         0.01    4.2656419  0.009266268    83.634908    85.312412 
   92800    1008.1284   0.33182822    11.410338   0.10027026         0.01    4.4261086  0.010512444    84.084216    84.145348 
   92900    1009.2252   0.33287573    11.422189   0.10027026         0.01    4.1997027  0.011410323    83.818422    82.978526 
   93000    1010.3141   0.33168894    11.434681   0.10027026         0.01    4.7280046  0.010438421    82.787555    81.812764 
   93100    1011.3573   0.33339703    11.445687   0.10027026         0.01     4.483121 0.0099902935    81.175233    80.648691 
   93200    1012.3691   0.33302475    11.456186   0.10027026         0.01    3.9767308  0.010560518    84.034872    79.481413 
   93300    1013.4251   0.33251783    11.467455   0.10027026         0.01    4.0415062  0.010704698    83.470647    78.314664 
   93400    1014.4695   0.33184522    11.478673   0.10027026         0.01    3.7027253  0.010885577    83.634207    77.147683 
   93500    1015.4719   0.33169921    11.489521   0.10027026         0.01    4.6201235 0.0094583775    84.084351    75.980195 
   93600    1016.4891   0.33075109    11.500654   0.10027026         0.01    4.1108641  0.010390278    84.816706    74.811959 
   93700    1017.4952    0.3309059    11.511799   0.10027026         0.01    4.3401663 0.0094885765    81.123924    73.647308 
   93800    1018.4597   0.33059377    11.522753   0.10027026         0.01    3.9588386  0.010332207    83.310488    72.480374 
   93900      1019.52   0.33043463    11.533998   0.10027026         0.01    3.9327756  0.010848199    83.460963    71.313228 
   94000    1020.5489   0.33078329    11.545089   0.10027026         0.01    3.8798899  0.010408767    82.503276    70.146903 
   94100    1021.6305   0.33102431    11.556932   0.10027026         0.01    3.7356829  0.010165083    81.171871    68.981728 
   94200    1022.6929   0.33137967    11.568296   0.10027026         0.01    4.2034063  0.011365829    83.837253       67.814 
   94300    1023.8078   0.33141134    11.579616   0.10027026         0.01    3.5703011   0.01110556    82.901623    66.647032 
   94400    1024.8892   0.33256608    11.591036   0.10027026         0.01    3.7079804 0.0098819735    81.913569    65.480844 
   94500    1025.8836    0.3317387    11.600691   0.10027026         0.01    5.0137758 0.0096547229    83.601984    64.313105 
   94600    1026.8964    0.3322242    11.610704   0.10027026         0.01     4.279804  0.011413391    78.899446    63.149376 
   94700    1027.9879   0.33257457    11.621674   0.10027026         0.01    4.1735851  0.010689453    83.308899    61.981674 
   94800    1029.0525   0.33169269    11.632911   0.10027026         0.01    4.1757441 0.0097279219    82.722897    60.814369 
   94900    1030.0983   0.33257787    11.644076   0.10027026         0.01    3.9956834 0.0099935982    83.339589    59.646496 
   95000     1031.202   0.33239567    11.655296   0.10027026         0.01    3.6641785  0.010971323    82.805518    58.478962 
   95100    1032.2967   0.33230621    11.667119   0.10027026         0.01    3.9830104  0.011033092    82.930915    57.311251 
   95200    1033.3775   0.33081532    11.678117   0.10027026         0.01    4.3230001  0.010742698     83.85041    56.142792 
   95300    1034.3977   0.33297678    11.688293   0.10027026         0.01    5.1139539  0.009398082    83.602884    54.974457 
   95400    1035.4186   0.33222916    11.698328   0.10027026         0.01    3.8271047  0.010449151    83.057087    53.806443 
   95500    1036.4687   0.33139837    11.709726   0.10027026         0.01    3.7593256  0.010804303    83.225156    52.638238 
   95600    1037.5511   0.33076961    11.721234   0.10027026         0.01    3.8879735  0.010993078    83.907611    51.469514 
   95700    1038.6495   0.33126893    11.732903   0.10027026         0.01    3.6361776  0.011400771    84.132656    50.300599 
   95800    1039.7356   0.33176613    11.744678   0.10027026         0.01    3.8313672  0.011345002    80.681538    49.133872 
   95900    1040.7586   0.33133154     11.75526   0.10027026         0.01    4.3327549 0.0098476905    83.012424    47.965505 
   96000    1041.7422   0.33189591    11.767011   0.10027026         0.01    4.1866331  0.010019793    82.334535    46.797476 
   96100    1042.7576   0.33147606     11.77882   0.10027026         0.01    4.0606882 0.0099274704     83.33237    45.628759 
   96200    1043.7778   0.33411499    11.790229   0.10027026         0.01    4.0720689  0.010879719    83.719411    44.459759 
   96300    1044.8306   0.33285374    11.802589   0.10027026         0.01    4.1380944  0.010879445    83.273801    43.290951 
   96400    1045.8697     0.331954    11.813322   0.10027026         0.01    4.9665286 0.0097604361    81.419556    42.123098 
   96500    1046.8884   0.33200263    11.824595   0.10027026         0.01    3.9150474  0.010921402    83.847326     40.95383 
   96600     1047.964   0.33234779    11.836144   0.10027026         0.01    4.0119594  0.010429541     84.70807    39.784087 
   96700     1049.002   0.33304167    11.848549   0.10027026         0.01    4.1480255 0.0097055013    83.030139    38.615136 
   96800     1050.028   0.33189231    11.859904   0.10027026         0.01    4.1942466  0.010824457    81.681194     37.44677 
   96900     1051.048   0.33288279    11.870664   0.10027026         0.01    4.3024849  0.010356135    83.385931    36.277487 
   97000    1052.1195   0.33216239    11.883317   0.10027026         0.01    3.7285853  0.011460227    81.657325    35.108927 
   97100    1053.2347   0.33206924    11.895318   0.10027026         0.01    4.3337493  0.010531926    82.941575    33.939686 
   97200    1054.3675   0.33102877     11.90708   0.10027026         0.01    4.1783355  0.011454267    83.330416    32.770208 
   97300    1055.4876   0.33278116    11.918627   0.10027026         0.01    4.2073579  0.010942139    83.295217    31.600681 
   97400    1056.6152   0.33116709     11.93144   0.10027026         0.01    4.1714735  0.010658269     83.63841    30.430959 
   97500    1057.7493   0.33126317    11.944188   0.10027026         0.01    4.1309376   0.01167056    82.664644    29.261545 
   97600     1058.774   0.33204735    11.955147   0.10027026         0.01    3.8391734  0.010655202    83.355555    28.091801 
   97700    1059.8292   0.33181098    11.966329   0.10027026         0.01    4.7195876  0.010388546     84.05311    26.921762 
   97800    1060.8584   0.33154822    11.976875   0.10027026         0.01    5.0844535 0.0096961011    82.451863    25.752203 
   97900    1061.8484    0.3321656    11.987915   0.10027026         0.01    3.8498485  0.010051491    83.132566    24.582342 
   98000    1062.8454   0.33132598    11.999249   0.10027026         0.01    3.9257873  0.010045038    82.434588    23.412622 
   98100    1063.8799   0.33086057    12.010427   0.10027026         0.01     4.033291  0.010827484    83.215166    22.242592 
   98200     1064.964   0.33135654    12.022872   0.10027026         0.01    3.8455074  0.010545036    81.109381     21.07307 
   98300    1066.0439   0.32994628    12.035471   0.10027026         0.01    3.8710134  0.011290873    83.201118    19.902884 
   98400    1067.1419   0.33127959     12.04811   0.10027026         0.01    4.0817124 0.0098888164    81.786745     18.73297 
   98500    1068.1525   0.33236476    12.060258   0.10027026         0.01     4.357672 0.0096399901    83.897188    17.562481 
   98600    1069.1261   0.33242535     12.07156   0.10027026         0.01    4.8999134  0.009910592    81.707162    16.392402 
   98700    1070.0569   0.33242312    12.081304   0.10027026         0.01    4.1132979  0.010646998    83.820465    15.221808 
   98800    1071.1394   0.33153282    12.093746   0.10027026         0.01    4.3177378  0.010734654    83.653306    14.051197 
   98900    1072.2235   0.33277449    12.105948   0.10027026         0.01    4.3397669  0.010843184    81.500115    12.880888 
   99000    1073.2895   0.33349793    12.117434   0.10027026         0.01    3.6985275  0.010295433    84.183602    11.710069 
   99100    1074.3307   0.33224072     12.12859   0.10027026         0.01    3.8583305  0.010774342    81.006556    10.539638 
   99200    1075.3433   0.33229926    12.139751   0.10027026         0.01    4.6827015  0.010251887    83.176254    9.3688187 
   99300    1076.4147    0.3318269    12.151359   0.10027026         0.01    4.0734751  0.011413161    84.217696    8.1978313 
   99400    1077.5037   0.33347184    12.163594   0.10027026         0.01    4.1096844  0.011217931    83.716053    7.0268537 
   99500    1078.6196   0.33253943    12.176854   0.10027026         0.01    3.8685377  0.010287558     83.49469    5.8558448 
   99600    1079.7363   0.33145915     12.18931   0.10027026         0.01    4.1936674  0.010938683    84.006158     4.684753 
   99700    1080.8525   0.33241327    12.201524   0.10027026         0.01    3.6072938  0.011152262    83.583458    3.5136407 
   99800    1081.9765   0.33156616    12.214003   0.10027026         0.01    3.7836339  0.011018915    82.956092    2.3424957 
   99900    1082.9988   0.33347677    12.224564   0.10027026         0.01    4.0307752  0.010125643    85.024679    1.1712528 
  100000    1084.0232   0.33315868    12.235504   0.10027026         0.01    3.8206757  0.010413542    81.749699            0 
Loop time of 1171.3 on 4 procs for 100000 steps with 178537 atoms

Performance: 76814.343 tau/day, 85.375 timesteps/s
220.6% CPU use with 1 MPI tasks x 4 OpenMP threads

MPI task timing breakdown:
Section |  min time  |  avg time  |  max time  |%varavg| %total
---------------------------------------------------------------
Pair    | 373.63     | 373.63     | 373.63     |   0.0 | 31.90
Neigh   | 17.656     | 17.656     | 17.656     |   0.0 |  1.51
Comm    | 129.67     | 129.67     | 129.67     |   0.0 | 11.07
Output  | 3.3238     | 3.3238     | 3.3238     |   0.0 |  0.28
Modify  | 575.01     | 575.01     | 575.01     |   0.0 | 49.09
Other   |            | 72.02      |            |       |  6.15

Nlocal:    178537 ave 178537 max 178537 min
Histogram: 1 0 0 0 0 0 0 0 0 0
Nghost:    66915 ave 66915 max 66915 min
Histogram: 1 0 0 0 0 0 0 0 0 0
Neighs:    0 ave 0 max 0 min
Histogram: 1 0 0 0 0 0 0 0 0 0

Total # of neighbors = 0
Ave neighs/atom = 0
Neighbor list builds = 28830
Dangerous builds = 0

Please see the log.cite file for references relevant to this simulation

Total wall time: 0:20:20
