#package gpu 1
#suffix gpu
# variable rho equal 0.03

units lj
atom_style atomic

lattice fcc 0.975
Lattice spacing in x,y,z = 1.60085 1.60085 1.60085
region box block 0 60 0 30 0 30
create_box 2 box
Created orthogonal box = (0 0 0) to (96.0513 48.0256 48.0256)
  1 by 1 by 1 MPI processor grid
create_atoms 1 box
Created 216000 atoms
  Time spent = 0.0431042 secs
mass 1 4.0
mass 2 0.5


pair_style lj/cut 2.5
pair_coeff 1 1 1.0 1.0 2.5
pair_coeff 2 2 0.5 0.88 2.5
pair_coeff 1 2 0.2 1.0 2.5
#pair_coeff 1 2 1.5 0.8 2.5
pair_modify mix geometric
neigh_modify every 1 delay 0 check yes

variable R equal 12
region cylinder1 cylinder x $(0.5*ly) $(0.5*lz) $R EDGE EDGE units box
region cylinder1 cylinder x 24.012813670346833561 $(0.5*lz) $R EDGE EDGE units box
region cylinder1 cylinder x 24.012813670346833561 24.012813670346833561 $R EDGE EDGE units box
region cylinder1 cylinder x 24.012813670346833561 24.012813670346833561 12 EDGE EDGE units box

group cylinder1 region cylinder1
41820 atoms in group cylinder1
variable V equal PI*v_R*v_R*lx
# variable rho equal 0.1
variable natoms equal $V*${rho}
variable natoms equal 43452.5639148185*${rho}
variable natoms equal 43452.5639148185*0.40
variable natoms_in_cylinder equal count(cylinder1)
variable delete_fraction equal (${natoms_in_cylinder}-${natoms})/${natoms_in_cylinder}
variable delete_fraction equal (41820-${natoms})/${natoms_in_cylinder}
variable delete_fraction equal (41820-17381.0255659274)/${natoms_in_cylinder}
variable delete_fraction equal (41820-17381.0255659274)/41820
set group cylinder1 type 2
  41820 settings made for type
delete_atoms porosity cylinder1 ${delete_fraction} 12345
delete_atoms porosity cylinder1 0.58438485016912 12345
Deleted 24460 atoms, new total = 191540
#delete_atoms region cylinder1

region cylinder2 cylinder x $(0.5*ly) $(0.5*lz) $(v_R+6) EDGE EDGE units box
region cylinder2 cylinder x 24.012813670346833561 $(0.5*lz) $(v_R+6) EDGE EDGE units box
region cylinder2 cylinder x 24.012813670346833561 24.012813670346833561 $(v_R+6) EDGE EDGE units box
region cylinder2 cylinder x 24.012813670346833561 24.012813670346833561 18 EDGE EDGE units box
region cylinder3 cylinder x $(0.5*ly) $(0.5*lz) $(v_R+11) EDGE EDGE units box
region cylinder3 cylinder x 24.012813670346833561 $(0.5*lz) $(v_R+11) EDGE EDGE units box
region cylinder3 cylinder x 24.012813670346833561 24.012813670346833561 $(v_R+11) EDGE EDGE units box
region cylinder3 cylinder x 24.012813670346833561 24.012813670346833561 23 EDGE EDGE units box
group cylinder2 region cylinder2
71360 atoms in group cylinder2
group cylinder3 region cylinder3
131120 atoms in group cylinder3

group nve region cylinder3
131120 atoms in group nve
group langevin subtract cylinder3 cylinder2
59760 atoms in group langevin
group frozen subtract all cylinder3
60420 atoms in group frozen

region force cylinder x $(0.5*ly) $(0.5*lz) $(v_R-1) EDGE EDGE units box
region force cylinder x 24.012813670346833561 $(0.5*lz) $(v_R-1) EDGE EDGE units box
region force cylinder x 24.012813670346833561 24.012813670346833561 $(v_R-1) EDGE EDGE units box
region force cylinder x 24.012813670346833561 24.012813670346833561 11 EDGE EDGE units box
group inner dynamic all region cylinder1 every 1
dynamic group inner defined
#group gas dynamic all region force every 1
group gas type 2
17360 atoms in group gas

fix nve nve nve
fix langevin langevin langevin 0.50 0.50 1.0 12345 zero yes

variable gascount equal count(gas)

variable dP equal 0.001
variable measured_rho equal mass(gas)/(PI*(v_R-1)*(v_R-1)*lx)
variable force equal v_dP/v_measured_rho
variable force equal v_dP/v_rho

velocity all create 0.1 87287
velocity frozen set 0 0 0

compute chunk all chunk/atom bin/cylinder x lower $(lx) $(0.5*ly) $(0.5*lz) 0 $(v_R+5) 30 units box
compute chunk all chunk/atom bin/cylinder x lower 96.051254681387334244 $(0.5*ly) $(0.5*lz) 0 $(v_R+5) 30 units box
compute chunk all chunk/atom bin/cylinder x lower 96.051254681387334244 24.012813670346833561 $(0.5*lz) 0 $(v_R+5) 30 units box
compute chunk all chunk/atom bin/cylinder x lower 96.051254681387334244 24.012813670346833561 24.012813670346833561 0 $(v_R+5) 30 units box
compute chunk all chunk/atom bin/cylinder x lower 96.051254681387334244 24.012813670346833561 24.012813670346833561 0 17 30 units box

compute displacement nve displace/atom
compute mean_displacement nve reduce ave c_displacement[4]

compute vmax all reduce max vx
variable volume equal count(gas)/v_V

thermo_style custom step time temp c_mean_displacement v_volume v_force c_vmax dt spcpu cpuremain
thermo 100

compute keAtom all ke/atom
dump dump all custom 1000 trajectory.bin id type x y z c_keAtom

fix flow gas addforce v_force 0.0 0.0
run 5000
No /omp style for force computation currently active
Per MPI rank memory allocation (min/avg/max) = 91.41 | 91.41 | 91.41 Mbytes
Step Time Temp c_mean_displacement v_volume v_force c_vmax Dt S/CPU CPULeft 
       0            0  0.068469359            0   0.39951613       0.0025   0.77485834        0.005            0            0 
     100          0.5   0.10519511  0.089361002   0.39951613       0.0025     2.257282        0.005      96.8966    50.569428 
     200            1   0.15367515   0.14995629   0.39951613       0.0025    3.0832651        0.005    92.520194    50.708977 
     300          1.5   0.17941023   0.20811412   0.39951613       0.0025     3.144345        0.005    93.420148    49.871809 
     400            2   0.19738449   0.25708319   0.39951613       0.0025    2.9134325        0.005    92.336779    49.062439 
     500          2.5   0.21072179   0.29771888   0.39951613       0.0025    3.0849049        0.005     92.44725    48.131973 
     600            3   0.21921483   0.33067123   0.39951613       0.0025    3.6042145        0.005       92.947    47.108447 
     700          3.5   0.22560168   0.35496635   0.39951613       0.0025    3.3728114        0.005    91.378097    46.183432 
     800            4   0.23129559   0.37057387   0.39951613       0.0025    3.6012595        0.005     92.07594    45.172539 
     900          4.5   0.23822699   0.38004328   0.39951613       0.0025    3.2687519        0.005    92.017824    44.148067 
    1000            5    0.2435401   0.38533135   0.39951613       0.0025    3.4128386        0.005    91.863889    43.118424 
    1100          5.5   0.24937101   0.38966491   0.39951613       0.0025    3.2024138        0.005    93.011927    42.030431 
    1200            6   0.25363623    0.3942611   0.39951613       0.0025    3.8944938        0.005    95.287647    40.863269 
    1300          6.5    0.2573922   0.40085484   0.39951613       0.0025    3.8081926        0.005    94.293181    39.745722 
    1400            7   0.25980438   0.41123752   0.39951613       0.0025    3.5407745        0.005    93.332692    38.664383 
    1500          7.5   0.26257822   0.42359573   0.39951613       0.0025    3.2883115        0.005    94.861713    37.544066 
    1600            8   0.26612446   0.43740119   0.39951613       0.0025    3.5160987        0.005     95.45428    36.418114 
    1700          8.5   0.26976069   0.45172969   0.39951613       0.0025    3.2431531        0.005    93.958739    35.333748 
    1800            9   0.27403596   0.46535906   0.39951613       0.0025    3.8801627        0.005    94.039675    34.249982 
    1900          9.5   0.27695579   0.47884675   0.39951613       0.0025    3.6325856        0.005    95.760125    33.137191 
    2000           10   0.28110333   0.49103482   0.39951613       0.0025    4.0912181        0.005    95.356255    32.037885 
    2100         10.5   0.28514829   0.50315628   0.39951613       0.0025    3.6279309        0.005       93.135    30.977938 
    2200           11   0.28815585   0.51551022   0.39951613       0.0025    3.4741918        0.005    95.023973    29.889574 
    2300         11.5   0.28993298   0.52935335   0.39951613       0.0025     3.837645        0.005    95.130829    28.802953 
    2400           12   0.29286046   0.54387621   0.39951613       0.0025    3.6344937        0.005    94.818287    27.723041 
    2500         12.5   0.29464492   0.55749314   0.39951613       0.0025    3.7656143        0.005    94.726377    26.646171 
    2600           13   0.29508492   0.57028198   0.39951613       0.0025    3.9902477        0.005    94.026942     25.57818 
    2700         13.5   0.29703379   0.58186269   0.39951613       0.0025    3.5531923        0.005    95.477877    24.496754 
    2800           14   0.29814018   0.59323478   0.39951613       0.0025     3.398304        0.005    95.665137    23.416149 
    2900         14.5   0.29878559   0.60326098   0.39951613       0.0025     3.616197        0.005    95.379891    22.340242 
    3000           15   0.29958646   0.61196403   0.39951613       0.0025    3.7101459        0.005    93.765787    21.278199 
    3100         15.5   0.30224863   0.61939336   0.39951613       0.0025    3.5389455        0.005    94.743623    20.209122 
    3200           16   0.30300555   0.62678757   0.39951613       0.0025     3.438441        0.005    95.312527    19.137351 
    3300         16.5   0.30450839   0.63422092   0.39951613       0.0025    3.7606877        0.005    94.683631     18.07054 
    3400           17   0.30638635   0.64182014   0.39951613       0.0025    3.9236171        0.005    95.128283    17.002032 
    3500         17.5   0.30791198   0.64930644   0.39951613       0.0025    3.7332517        0.005    94.719296    15.936458 
    3600           18   0.30875908   0.65782022   0.39951613       0.0025    3.9166985        0.005    94.019249    14.874487 
    3700         18.5   0.30937704   0.66545909   0.39951613       0.0025    3.9291436        0.005    95.023715    13.808477 
    3800           19   0.30938557    0.6751482   0.39951613       0.0025    3.3394356        0.005    95.665944    12.740954 
    3900         19.5   0.31020288   0.68452396   0.39951613       0.0025    3.7714361        0.005    94.276564    11.678915 
    4000           20   0.31231322   0.69362746   0.39951613       0.0025    3.9074666        0.005    93.620329    10.618802 
    4100         20.5    0.3142205   0.70320792   0.39951613       0.0025    3.4882163        0.005    93.639369    9.5582491 
    4200           21   0.31545489   0.71329408   0.39951613       0.0025    3.5218748        0.005    91.999275    8.5009714 
    4300         21.5   0.31582164   0.72298623   0.39951613       0.0025    3.4167189        0.005    92.129819    7.4420622 
    4400           22   0.31642987   0.73243952   0.39951613       0.0025    4.2075247        0.005    92.447658    6.3814388 
    4500         22.5   0.31762383   0.74145919   0.39951613       0.0025    4.0407054        0.005    95.268688      5.31632 
    4600           23   0.31808809   0.75053505   0.39951613       0.0025    3.8800505        0.005    93.495782    4.2536042 
    4700         23.5   0.31895952   0.76004554   0.39951613       0.0025     3.534261        0.005    94.768927    3.1896795 
    4800           24   0.32029977   0.76871698   0.39951613       0.0025    3.7168457        0.005    95.912972    2.1255941 
    4900         24.5   0.32072514    0.7768335   0.39951613       0.0025    3.4999748        0.005    94.925648    1.0626064 
    5000           25   0.32147186   0.78538729   0.39951613       0.0025    3.9232991        0.005    92.419567            0 
Loop time of 53.1498 on 4 procs for 5000 steps with 191540 atoms

Performance: 40639.888 tau/day, 94.074 timesteps/s
228.7% CPU use with 1 MPI tasks x 4 OpenMP threads

MPI task timing breakdown:
Section |  min time  |  avg time  |  max time  |%varavg| %total
---------------------------------------------------------------
Pair    | 18.124     | 18.124     | 18.124     |   0.0 | 34.10
Neigh   | 0.42896    | 0.42896    | 0.42896    |   0.0 |  0.81
Comm    | 4.9746     | 4.9746     | 4.9746     |   0.0 |  9.36
Output  | 0.17737    | 0.17737    | 0.17737    |   0.0 |  0.33
Modify  | 25.806     | 25.806     | 25.806     |   0.0 | 48.55
Other   |            | 3.639      |            |       |  6.85

Nlocal:    191540 ave 191540 max 191540 min
Histogram: 1 0 0 0 0 0 0 0 0 0
Nghost:    67766 ave 67766 max 67766 min
Histogram: 1 0 0 0 0 0 0 0 0 0
Neighs:    0 ave 0 max 0 min
Histogram: 1 0 0 0 0 0 0 0 0 0

Total # of neighbors = 0
Ave neighs/atom = 0
Neighbor list builds = 658
Dangerous builds = 0

reset_timestep 0
fix vx all ave/chunk 10 10000 100000 chunk vx ave running file velocity.txt

fix dt all dt/reset 10 NULL NULL 0.05 units box

run 100000
No /omp style for force computation currently active
Per MPI rank memory allocation (min/avg/max) = 101.4 | 101.4 | 101.4 Mbytes
Step Time Temp c_mean_displacement v_volume v_force c_vmax Dt S/CPU CPULeft 
       0           25   0.32147186   0.78538729   0.39951613       0.0025    3.9232991  0.010487969            0            0 
     100    26.084175   0.32279162    0.8019254   0.39951613       0.0025    3.9374118  0.010824523    81.065989    1232.3303 
     200    27.182664   0.32230267   0.81872351   0.39951613       0.0025    3.5471941  0.010753063    82.274875     1222.052 
     300    28.297193   0.32345254   0.83512136   0.39951613       0.0025     4.807031 0.0099247143    82.049324    1218.9258 
     400    29.397842   0.32493643   0.85041405   0.39951613       0.0025    3.6421406  0.010352086    82.021534    1216.8563 
     500    30.504421   0.32434354   0.86742146   0.39951613       0.0025    3.5897682  0.011573374    83.195573     1211.703 
     600    31.623913   0.32684837   0.88319127   0.39951613       0.0025    3.8033152  0.011451255    82.516553    1209.5055 
     700    32.750528   0.32766172   0.90081488   0.39951613       0.0025    3.5724313  0.011102661    82.703421    1207.2012 
     800    33.837559   0.32866064   0.91779486   0.39951613       0.0025    4.1478855  0.011338245    80.647502    1208.9928 
     900      34.9135   0.33045345   0.93438845   0.39951613       0.0025    3.4794219  0.011607748    82.489938    1207.0612 
    1000    36.012714   0.33003935   0.94947538   0.39951613       0.0025    3.9230047  0.011344084    81.008199    1207.4687 
    1100    37.078561   0.33107043   0.96493605   0.39951613       0.0025    3.8050696   0.01124191    82.384669    1205.7233 
    1200    38.142958   0.33145584   0.97944092   0.39951613       0.0025    4.6499459  0.010566935    83.464102    1202.7741 
    1300    39.221068   0.33082651   0.99577747   0.39951613       0.0025    3.6750877  0.010387784    82.499592    1201.1577 
    1400    40.245063   0.33105102     1.010259   0.39951613       0.0025    3.9367855  0.011194565    83.207209     1198.873 
    1500    41.314414   0.33208221    1.0253483   0.39951613       0.0025    3.6972963  0.011757089    82.835903    1197.0865 
    1600    42.415493   0.33270431     1.041443   0.39951613       0.0025     3.730223  0.010401241    83.365363    1194.9009 
    1700    43.508025    0.3326437    1.0575548   0.39951613       0.0025    4.1024037 0.0087234297    82.046836     1193.946 
    1800    44.575598    0.3329783    1.0733549   0.39951613       0.0025    4.4855986  0.010240027    80.687266    1194.0821 
    1900     45.67703   0.33271927    1.0895581   0.39951613       0.0025    3.6884129  0.010678222    82.548367    1192.6308 
    2000    46.749709   0.33442137    1.1045435   0.39951613       0.0025    3.6462571   0.01164497    80.287682    1192.8748 
    2100    47.799505   0.33218499    1.1181548   0.39951613       0.0025    3.6689723  0.011297605    83.304597    1190.8741 
    2200    48.881265   0.33398073     1.132769   0.39951613       0.0025    3.8542102  0.011118497    82.415766    1189.5217 
    2300    49.948052   0.33358594    1.1477037   0.39951613       0.0025    3.7140766  0.010509507    83.915568    1187.2603 
    2400    51.041835    0.3354155     1.162585   0.39951613       0.0025    4.0413517  0.011165416    82.639236    1185.8364 
    2500    52.121354    0.3353531    1.1778221   0.39951613       0.0025    4.5984651  0.010667249    83.883043    1183.7298 
    2600     53.19868   0.33426178    1.1939229   0.39951613       0.0025     3.767573  0.010720718    79.730904    1184.0194 
    2700    54.293637     0.334751    1.2096629   0.39951613       0.0025    3.9268884  0.010341773    78.478885    1184.9156 
    2800    55.380813   0.33587341    1.2239921   0.39951613       0.0025    4.3515897  0.010537615    83.201251    1183.1461 
    2900    56.482181   0.33602377     1.239343   0.39951613       0.0025    3.4559346   0.01128107    83.792651    1181.1318 
    3000    57.571315   0.33559392    1.2552143   0.39951613       0.0025    3.9872859  0.011116352    81.586039    1180.2158 
    3100    58.661775   0.33641408    1.2700963   0.39951613       0.0025    4.1397057   0.01003208     82.51329    1178.8493 
    3200    59.715579   0.33596626    1.2847797   0.39951613       0.0025    3.6800792  0.010464216    83.562642    1177.0322 
    3300     60.72137   0.33659844    1.2985777   0.39951613       0.0025     3.714912  0.010897935    83.029235    1175.4778 
    3400     61.81458   0.33811176    1.3132955   0.39951613       0.0025    3.9717713   0.01020468    82.645651    1174.1029 
    3500     62.88489   0.33696651    1.3278359   0.39951613       0.0025    3.8486358  0.010947021    83.241838    1172.4985 
    3600    63.952372   0.33728044    1.3431829   0.39951613       0.0025     3.658166 0.0099986648    83.689009    1170.7446 
    3700    64.979137   0.33618557    1.3586676   0.39951613       0.0025    3.7924337  0.011363124    83.230886    1169.1921 
    3800    66.039655   0.33769417    1.3728958   0.39951613       0.0025    3.8608329  0.011024757    84.201465    1167.3075 
    3900     67.11834   0.33850067    1.3882634   0.39951613       0.0025     3.953441  0.010454804    83.015989    1165.8765 
    4000    68.167741   0.33810449    1.4028259   0.39951613       0.0025    4.0665642  0.011287395    82.456888    1164.6528 
    4100    69.210308   0.33731966    1.4185898   0.39951613       0.0025    4.2599213  0.010035474    82.934211    1163.2664 
    4200    70.276285   0.33740369    1.4337599   0.39951613       0.0025    3.8447543  0.011185533    84.124388    1161.4995 
    4300    71.323151    0.3379657    1.4493382   0.39951613       0.0025    3.4587534  0.010234581    82.010099    1160.4416 
    4400    72.370682   0.33818694    1.4643033   0.39951613       0.0025    3.6126503   0.01068542    82.436776    1159.2392 
    4500    73.395977   0.33859968    1.4792826   0.39951613       0.0025    4.3549563  0.011479439    83.110658    1157.8275 
    4600    74.482668     0.337657     1.495813   0.39951613       0.0025    3.7531631  0.011385978    83.056281    1156.4413 
    4700    75.564918   0.33618402    1.5119872   0.39951613       0.0025    3.7980966  0.011323106    81.837938    1155.4263 
    4800    76.668286    0.3366413    1.5285035   0.39951613       0.0025    4.5515215  0.010611631     83.26056    1153.9886 
    4900    77.744695   0.33767077    1.5449782   0.39951613       0.0025    3.9680701  0.010956215     82.65904    1152.7301 
    5000    78.847299   0.33817281    1.5615804   0.39951613       0.0025    3.9603224  0.010195214    81.380662    1151.8347 
    5100    79.885892   0.33754673    1.5772035   0.39951613       0.0025    3.9899896  0.011059441    84.270421    1150.1421 
    5200     80.91675   0.33900804    1.5930946   0.39951613       0.0025    4.1126631   0.01097391    84.391399     1148.438 
    5300    81.993089   0.33834326    1.6086623   0.39951613       0.0025    3.9245064  0.010863531    82.681738    1147.1913 
    5400    83.070355   0.33933702    1.6253848   0.39951613       0.0025    3.7292353  0.010281145    83.607766    1145.7113 
    5500    84.125258   0.33806315    1.6416716   0.39951613       0.0025    3.5540851   0.01142725    83.248629    1144.3302 
    5600    85.214755   0.33756052    1.6569077   0.39951613       0.0025     3.902898   0.01122001    82.342213    1143.1785 
    5700      86.2847   0.33758389    1.6730059   0.39951613       0.0025    3.7907553  0.011423679    83.549376    1141.7343 
    5800    87.362996   0.33955256    1.6891165   0.39951613       0.0025     3.696526  0.010698472    81.349615    1140.8243 
    5900    88.435459    0.3387526    1.7054125   0.39951613       0.0025    3.7402107  0.010936938    82.196224    1139.7015 
    6000    89.498108   0.33866397    1.7219348   0.39951613       0.0025    3.6198134  0.010167755    83.123933    1138.3628 
    6100    90.580823   0.33804355    1.7373518   0.39951613       0.0025     3.772144  0.010008889    81.414119    1137.4176 
    6200    91.624325   0.33897725    1.7530611   0.39951613       0.0025    3.9262601  0.010826581    83.943329    1135.9032 
    6300    92.718412   0.33999224    1.7698229   0.39951613       0.0025    3.7682212  0.010494127    82.818549    1134.6398 
    6400    93.794315   0.33861649     1.786547   0.39951613       0.0025     4.211304  0.010452765    82.359497    1133.4766 
    6500     94.86497   0.33982253    1.8027836   0.39951613       0.0025    3.5885942  0.011273847    82.602991    1132.2603 
    6600     95.92085     0.339848    1.8192826   0.39951613       0.0025    3.9064048  0.011413113    83.731127    1130.8134 
    6700    96.980499   0.33897442    1.8363622   0.39951613       0.0025    3.6447072  0.011451637    83.958889    1129.3288 
    6800    98.060922   0.33834265    1.8552374   0.39951613       0.0025    3.9706164  0.011452005    83.260345    1127.9899 
    6900    99.131293   0.34121176    1.8726894   0.39951613       0.0025    4.1726222  0.010318669    83.500475    1126.6084 
    7000    100.18884   0.34010309    1.8907053   0.39951613       0.0025    3.8293635  0.010836629    81.685601    1125.5856 
    7100     101.1828   0.33932822    1.9072351   0.39951613       0.0025    3.9129442  0.010156357    81.353323    1124.6226 
    7200    102.20074   0.33977594    1.9233005   0.39951613       0.0025    4.1240292  0.011252188    84.151004    1123.1254 
    7300    103.23846   0.34008417    1.9402796   0.39951613       0.0025    4.3767277  0.010959645    83.182423    1121.8125 
    7400    104.28306   0.33937059     1.958102   0.39951613       0.0025    3.7526743  0.010599534     80.18699    1121.0645 
    7500    105.33646     0.339169    1.9764139   0.39951613       0.0025    3.5607929  0.011310607    82.069135    1119.9504 
    7600    106.40472   0.33906261    1.9946724   0.39951613       0.0025    4.3379092 0.0098449825    82.111245     1118.826 
    7700    107.47513   0.34076798    2.0132048   0.39951613       0.0025    4.3133899  0.009413963    83.090357    1117.5272 
    7800    108.51795    0.3392239    2.0323058   0.39951613       0.0025    3.7388051  0.011331749    81.661252    1116.4797 
    7900    109.55847   0.33937495    2.0518214   0.39951613       0.0025    3.6946956  0.010764183    83.457343    1115.1205 
    8000    110.58347   0.33974371    2.0702284   0.39951613       0.0025    3.6330261  0.011634328     82.94935    1113.8498 
    8100    111.62278   0.33943248    2.0890422   0.39951613       0.0025    3.9106099  0.010436672    79.708509    1113.1367 
    8200    112.72297   0.34109183    2.1091259   0.39951613       0.0025    4.2208721  0.010445823    77.512592    1112.8084 
    8300    113.78456   0.33974136    2.1274668   0.39951613       0.0025     3.687874 0.0099572312    83.051726    1111.5062 
    8400    114.80286    0.3406955    2.1460645   0.39951613       0.0025    3.9649586  0.011001986    84.174022    1110.0314 
    8500    115.85399   0.33978908    2.1662191   0.39951613       0.0025     3.957855 0.0095657982    83.298145    1108.6977 
    8600    116.85081   0.33984156    2.1850024   0.39951613       0.0025    4.2632272 0.0095505259    84.361474    1107.2063 
    8700    117.88696     0.339862    2.2054246   0.39951613       0.0025    4.1069198   0.01016795    82.550626    1105.9949 
    8800    118.95158   0.34100333    2.2269477   0.39951613       0.0025    3.9741639  0.010239314    82.333129    1104.8166 
    8900    120.01616    0.3403004    2.2488305   0.39951613       0.0025    4.2482854 0.0098674486    82.901951    1103.5521 
    9000    121.05061   0.33918356    2.2699438   0.39951613       0.0025    4.0276749  0.010758225    81.767229    1102.4583 
    9100     122.1098    0.3396628    2.2914375   0.39951613       0.0025    3.7216802  0.010959475    81.945384     1101.335 
    9200    123.17526   0.34010568    2.3127012   0.39951613       0.0025    4.2058323  0.010045748    82.970468    1100.0608 
    9300    124.18518   0.34071984    2.3324139   0.39951613       0.0025    4.0985933  0.010161134    83.683966    1098.6879 
    9400    125.18615   0.34006735    2.3527644   0.39951613       0.0025    4.0278426  0.010693526     83.40903    1097.3568 
    9500    126.24501   0.33965005    2.3743919   0.39951613       0.0025    3.7305153  0.010498258    82.541625    1096.1484 
    9600    127.26415    0.3414125    2.3949251   0.39951613       0.0025    4.2484974  0.010996118    82.681053    1094.9207 
    9700    128.28434   0.34020797    2.4160506   0.39951613       0.0025     4.129337  0.010795355    82.747001    1093.6845 
    9800    129.35493   0.34054014    2.4390851   0.39951613       0.0025    3.7755727  0.011273074    82.667169    1092.4595 
    9900      130.387   0.34081683    2.4605031   0.39951613       0.0025    4.0170186  0.011600298    77.326361    1091.9953 
   10000    131.44438   0.34139089    2.4816495   0.39951613       0.0025    3.8498893  0.010864312    82.255238     1090.817 
   10100    132.47601   0.34208533    2.5037969   0.39951613       0.0025     4.479317  0.011154163    82.617521    1089.5906 
   10200    133.53579   0.34154215    2.5265758   0.39951613       0.0025    3.6901119  0.010425344    83.120276       1088.3 
   10300    134.57024   0.34110615    2.5491645   0.39951613       0.0025    4.0255574  0.009785494    82.449821    1087.0963 
   10400    135.56963   0.34090571    2.5690505   0.39951613       0.0025     3.997535  0.010887634    81.923296    1085.9595 
   10500    136.62135   0.33996071    2.5909997   0.39951613       0.0025      3.92704  0.010678562    82.996573    1084.6867 
   10600    137.68758   0.34122425    2.6139383   0.39951613       0.0025    4.6604113  0.010253566    82.845376    1083.4336 
   10700    138.74693   0.34048877    2.6367008   0.39951613       0.0025    4.0350819  0.010575982    80.814935    1082.4346 
   10800     139.8045   0.34074685    2.6596516   0.39951613       0.0025    4.3800264 0.0097587477    83.097189    1081.1504 
   10900    140.80143   0.34130984    2.6812047   0.39951613       0.0025    4.7110358  0.010449029    83.792869     1079.786 
   11000    141.81792   0.34030458    2.7032844   0.39951613       0.0025    4.8898392 0.0098213048    83.127113    1078.5021 
   11100    142.79851   0.34072377    2.7244709   0.39951613       0.0025    3.9105287 0.0098601981    82.387533    1077.3061 
   11200    143.81545    0.3419131    2.7479208   0.39951613       0.0025    4.4766613 0.0098183194    82.309055     1076.119 
   11300    144.81693   0.34119025    2.7713441   0.39951613       0.0025    3.9626992  0.010380141    81.036356    1075.0812 
   11400    145.87726   0.34156769    2.7959277   0.39951613       0.0025     4.127141  0.010841972    82.076603    1073.9183 
   11500    146.92664    0.3420212    2.8202839   0.39951613       0.0025    4.2029857  0.010426863    82.685014    1072.6856 
   11600    147.96286   0.34207052    2.8439622   0.39951613       0.0025     4.436623 0.0097378561    83.356334     1071.379 
   11700    148.99322    0.3408181    2.8661392   0.39951613       0.0025    3.8706216 0.0096165632    83.891348    1070.0164 
   11800    150.07413    0.3412178    2.8902639   0.39951613       0.0025    4.5789328 0.0097174384    83.326873    1068.7172 
   11900    151.10335   0.34139128     2.913235   0.39951613       0.0025    4.0629257   0.01080265    83.962217    1067.3523 
   12000    152.13356   0.34183325    2.9370772   0.39951613       0.0025    3.9670772  0.010599777    81.628116    1066.2401 
   12100    153.16781   0.34074653    2.9610148   0.39951613       0.0025    4.0164891  0.010046574     82.91875    1064.9875 
   12200    154.20323   0.34057198    2.9841774   0.39951613       0.0025    3.8251998  0.010258366    82.969713    1063.7304 
   12300    155.22006   0.34127389    3.0070121   0.39951613       0.0025    4.2650283  0.010307237    83.183182     1062.452 
   12400    156.31416   0.34199884    3.0322945   0.39951613       0.0025    4.1228489  0.010773261    84.748275    1061.0181 
   12500    157.38183   0.34158695    3.0572632   0.39951613       0.0025    4.3366138  0.010920479     84.43336     1059.619 
   12600    158.46556   0.34256914    3.0826959   0.39951613       0.0025    4.7012717  0.010280302     83.20305    1058.3447 
   12700    159.52307   0.34149074    3.1078588   0.39951613       0.0025    4.1804403  0.009641757    84.954984    1056.9013 
   12800    160.55849   0.34169755    3.1320923   0.39951613       0.0025    4.2495286   0.01054103    84.700116    1055.4861 
   12900    161.59267   0.34104849    3.1557657   0.39951613       0.0025    4.6516732  0.010575048    83.623369    1054.1773 
   13000    162.63272   0.34083382    3.1791977   0.39951613       0.0025    3.8851742 0.0099793709    82.175273    1053.0112 
   13100    163.68288   0.34001456     3.204361   0.39951613       0.0025    4.0635534  0.010014017    81.718704    1051.8894 
   13200    164.71711   0.34034541    3.2282162   0.39951613       0.0025    4.3089355  0.010838942    78.499786     1051.096 
   13300     165.7568   0.34019288    3.2531672   0.39951613       0.0025    3.9646716  0.010066718    81.296841    1050.0097 
   13400     166.7515   0.34087522    3.2759291   0.39951613       0.0025    4.1523633   0.01001574    82.759737    1048.7807 
   13500    167.68204   0.34043379    3.2979179   0.39951613       0.0025    4.8079602 0.0089103048    81.406708    1047.6808 
   13600    168.53516   0.34132503     3.317367   0.39951613       0.0025    4.0419244 0.0098457884    80.147932    1046.7015 
   13700    169.59092   0.34210194    3.3419709   0.39951613       0.0025    4.2062459  0.010637623    82.215736    1045.5206 
   13800    170.63295   0.34180281    3.3666416   0.39951613       0.0025    4.1490974 0.0099918708    83.172196    1044.2518 
   13900    171.64361   0.34167437    3.3895619   0.39951613       0.0025     4.293658  0.010511103    83.133324    1042.9874 
   14000    172.69329   0.34142596    3.4141336   0.39951613       0.0025    4.1342883  0.011143021    82.011238    1041.8251 
   14100    173.74518   0.34071137    3.4389816   0.39951613       0.0025    4.2695228  0.010247814    82.280556    1040.6376 
   14200     174.7511   0.34268972    3.4615293   0.39951613       0.0025    4.2658822  0.009725294    82.506895    1039.4296 
   14300    175.73346   0.34165254    3.4843349   0.39951613       0.0025    3.9306148  0.010555656    83.229648    1038.1584 
   14400    176.76004    0.3415311    3.5082312   0.39951613       0.0025    3.9306282  0.010879673    83.255833     1036.886 
   14500    177.80575   0.34132792    3.5321882   0.39951613       0.0025    4.0730013  0.010844916    84.689786    1035.4946 
   14600    178.87061   0.34173241     3.556585   0.39951613       0.0025    4.5878154  0.010646543    81.780925    1034.3518 
   14700     179.8956   0.34364934    3.5798714   0.39951613       0.0025    3.9002208   0.01050228    83.328463    1033.0761 
   14800    180.92934   0.34259275    3.6035341   0.39951613       0.0025    4.0222888  0.011114039    82.468853    1031.8735 
   14900    182.00281   0.34201591    3.6273455   0.39951613       0.0025    4.2439643  0.011092331    82.476004    1030.6701 
   15000    183.01529   0.34226984    3.6503101   0.39951613       0.0025    3.9625105  0.010216724    80.491511     1029.636 
   15100    184.06415   0.34245563    3.6746228   0.39951613       0.0025    4.2088146  0.010384963    83.713246    1028.3303 
   15200    185.10154   0.34075698    3.6987279   0.39951613       0.0025    3.9217995 0.0099962148    82.483481    1027.1254 
   15300    186.15775   0.34137115    3.7231553   0.39951613       0.0025    3.8612674 0.0099766577     83.38802    1025.8476 
   15400    187.19203   0.34235235    3.7481539   0.39951613       0.0025    4.3543425 0.0085318518     80.92711    1024.7712 
   15500     188.1456   0.34168683    3.7705547   0.39951613       0.0025    4.6678592  0.010551828    82.527171    1023.5621 
   15600    189.16748   0.34292253    3.7951689   0.39951613       0.0025    5.1754353 0.0095286715    82.666501     1022.342 
   15700    190.20665    0.3421016     3.820878   0.39951613       0.0025    3.8579152  0.010647475    82.058811      1021.17 
   15800    191.23823   0.34103741    3.8459035   0.39951613       0.0025    4.6750885  0.010116145    83.469118    1019.8878 
   15900    192.28587   0.34150692    3.8715815   0.39951613       0.0025     4.603263  0.010364197    83.103198    1018.6345 
   16000    193.34192   0.34040474    3.8977937   0.39951613       0.0025    3.8512248  0.009704273    81.441784    1017.5107 
   16100    194.37197   0.34198801    3.9236134   0.39951613       0.0025    3.9547411  0.010761589     81.90733    1016.3492 
   16200    195.42035   0.34187389    3.9511131   0.39951613       0.0025     4.155107  0.010364355    82.573248    1015.1361 
   16300    196.48928   0.34262632    3.9762658   0.39951613       0.0025    3.7537925  0.010640349    82.535892    1013.9258 
   16400    197.54051   0.34325746    4.0022933   0.39951613       0.0025    3.7457225  0.010327661    82.054316    1012.7518 
   16500    198.55356   0.34149971    4.0280364   0.39951613       0.0025    3.7895049 0.0094489292    81.739614     1011.601 
   16600    199.58208   0.34221839    4.0544698   0.39951613       0.0025    4.0835873  0.010315195     82.85567    1010.3664 
   16700    200.63852   0.34089254    4.0816505   0.39951613       0.0025    4.1422666  0.010402748    82.094386    1009.1881 
   16800    201.68474   0.34268126    4.1077608   0.39951613       0.0025    4.0163542  0.010843973    83.092645    1007.9368 
   16900    202.73658   0.34263123    4.1342192   0.39951613       0.0025    4.3228496 0.0095979925    82.398992    1006.7359 
   17000    203.76824   0.34317589    4.1603615   0.39951613       0.0025     4.306191 0.0098230383    81.990541    1005.5643 
   17100    204.79345   0.34376241    4.1855884   0.39951613       0.0025    3.9220527  0.010986773     83.27643    1004.3009 
   17200    205.82655   0.34263868    4.2108112   0.39951613       0.0025    3.9003434  0.010001173    82.789271    1003.0722 
   17300    206.85492    0.3424899    4.2363677   0.39951613       0.0025     4.405149 0.0093301954    83.450933     1001.798 
   17400    207.88569   0.34186415    4.2612527   0.39951613       0.0025    4.0241278  0.010054872    83.423215    1000.5266 
   17500    208.92074   0.34285996    4.2865276   0.39951613       0.0025    4.2136035  0.010215022    84.399652    999.19059 
   17600    209.96962   0.34338935    4.3117781   0.39951613       0.0025    3.9959251  0.010765192    83.698261     997.9028 
   17700    210.95461   0.34229353    4.3366508   0.39951613       0.0025    4.0283391  0.010636647    82.235756    996.71485 
   17800    212.01394   0.34181788    4.3624664   0.39951613       0.0025    4.3480734   0.01048289     84.39381      995.383 
   17900    213.06262   0.34249595    4.3887896   0.39951613       0.0025    4.7553423  0.010253639    83.985485    994.07921 
   18000    214.09383   0.34168582    4.4146336   0.39951613       0.0025    3.9605325  0.010181323    82.153544    992.89763 
   18100    215.14573    0.3418256    4.4425209   0.39951613       0.0025    3.8028327  0.010495478    82.848796    991.66944 
   18200    216.17807   0.34194798    4.4683254   0.39951613       0.0025     4.364098 0.0098323114    84.209681    990.35381 
   18300    217.16834   0.34201625    4.4938789   0.39951613       0.0025    4.0037457  0.010134021     83.46563    989.08684 
   18400    218.19661   0.34155777    4.5201117   0.39951613       0.0025    4.0975944  0.010576476    83.686488     987.8066 
   18500    219.19958   0.34318062    4.5452212   0.39951613       0.0025    4.3890546  0.010384682    83.777069    986.52158 
   18600    220.20159   0.34316265    4.5706749   0.39951613       0.0025    4.0352568  0.009864302    83.811689    985.23539 
   18700    221.21152    0.3400647    4.5969048   0.39951613       0.0025    4.5539509  0.010178085    83.985838    983.93944 
   18800    222.23305   0.34157562    4.6229448   0.39951613       0.0025    3.8632639 0.0096950639    83.073719    982.70108 
   18900    223.21484   0.34204242    4.6483301   0.39951613       0.0025    3.9082874  0.010071475    83.347985    981.44609 
   19000    224.20904   0.34262062    4.6729496   0.39951613       0.0025    4.4931654 0.0096215169    80.623706     980.3645 
   19100    225.24901   0.34170444    4.6997958   0.39951613       0.0025    4.8083991 0.0094991689    83.050213    979.12777 
   19200    226.27572   0.34263686    4.7257655   0.39951613       0.0025    4.3337497  0.010739549    82.635751    977.91678 
   19300     227.3417    0.3423934    4.7513974   0.39951613       0.0025    4.3400169 0.0097926862    83.884453    976.63048 
   19400    228.37959   0.34272857    4.7769831   0.39951613       0.0025    4.2770844   0.01120534    83.217032    975.38488 
   19500    229.40776   0.34111443    4.8022787   0.39951613       0.0025    4.1220143  0.011023145    82.928029    974.15702 
   19600    230.42625   0.34238468    4.8265356   0.39951613       0.0025    4.2941166  0.010052426    83.481362    972.89659 
   19700    231.43332   0.34313266     4.851163   0.39951613       0.0025    3.8364676 0.0090805911    82.934982    971.66896 
   19800     232.4309   0.34296164      4.87633   0.39951613       0.0025    4.5877096 0.0096530408     83.60435    970.40246 
   19900    233.42033   0.34216166    4.8996879   0.39951613       0.0025    4.0686631   0.01031647    83.655409    969.13372 
   20000    234.44582    0.3427566    4.9241767   0.39951613       0.0025    4.2827804  0.010667451    82.172037    967.95203 
   20100    235.46304   0.34188315    4.9499679   0.39951613       0.0025    4.2283208  0.010382272     81.40061    966.81584 
   20200    236.48278   0.34243721     4.975987   0.39951613       0.0025    3.7205731 0.0097711313    84.602511    965.49506 
   20300     237.4683   0.34279573     5.000637   0.39951613       0.0025    4.0288267  0.010330234    84.367311    964.18858 
   20400    238.48046   0.34380831    5.0255571   0.39951613       0.0025    4.1880104  0.010631119    84.361779    962.88359 
   20500    239.53387   0.34331464    5.0515557   0.39951613       0.0025    3.7301715  0.010001275    83.843387     961.6082 
   20600    240.54313   0.34293875    5.0783806   0.39951613       0.0025    4.2219496  0.010845551    80.431175    960.52863 
   20700    241.57599   0.34399632    5.1036021   0.39951613       0.0025    4.2316932  0.010616449    83.228805    959.28738 
   20800    242.61259   0.34355683    5.1288728   0.39951613       0.0025    3.8650318    0.0106872    83.072073    958.05514 
   20900    243.65041   0.34384456    5.1538345   0.39951613       0.0025    4.2345257  0.010101762    83.236981    956.81415 
   21000    244.68194   0.34407586    5.1788537   0.39951613       0.0025    3.9414984  0.010509145    82.758169    955.59969 
   21100    245.69801   0.34326183    5.2035196   0.39951613       0.0025    4.0953507  0.010285315    82.067513    954.42331 
   21200    246.72127   0.34206335    5.2283175   0.39951613       0.0025    4.1611904   0.01033096    81.508953    953.27757 
   21300    247.74832   0.34264164    5.2535669   0.39951613       0.0025    4.9062476 0.0094782155    82.412722    952.08136 
   21400    248.76861    0.3423551    5.2789038   0.39951613       0.0025    4.2072503  0.010794175    81.729325    950.92224 
   21500    249.79911   0.34359108    5.3047825   0.39951613       0.0025    4.3619818  0.010551072    82.246383    949.73445 
   21600    250.83411   0.34324887    5.3311017   0.39951613       0.0025    4.0304448  0.010329597    82.415637    948.53734 
   21700    251.84873   0.34202047     5.356474   0.39951613       0.0025    4.1831121  0.010465797    82.534739    947.33376 
   21800    252.88931   0.34234618    5.3821633   0.39951613       0.0025    4.2810081  0.010498186    82.469193    946.13355 
   21900    253.90639   0.34352843    5.4083905   0.39951613       0.0025    4.4284077 0.0096935144    82.611712    944.92577 
   22000    254.93612   0.34198158    5.4345031   0.39951613       0.0025    4.4598445 0.0096400454    83.512828    943.67167 
   22100    255.97089   0.34043625    5.4596838   0.39951613       0.0025    3.9749269 0.0099952372    83.194319    942.43423 
   22200    257.01415   0.34187616     5.484833   0.39951613       0.0025    4.0111116 0.0096893649    82.731398    941.22068 
   22300    258.05061   0.34169864    5.5090834   0.39951613       0.0025    4.0761088  0.011074651    83.930211    939.94703 
   22400    259.09412   0.34130475    5.5345644   0.39951613       0.0025    3.9788494  0.010780557    83.718024    938.68456 
   22500    260.12928   0.34129162    5.5601098   0.39951613       0.0025    4.0616934  0.010541713    83.730559    937.42209 
   22600    261.17193   0.34217909    5.5863533   0.39951613       0.0025    3.8847605  0.010616712    83.677188    936.16282 
   22700    262.23124   0.34134557    5.6122232   0.39951613       0.0025    4.0488699  0.010625465    83.345418    934.92032 
   22800    263.26986   0.34089013    5.6381302   0.39951613       0.0025    4.1917823  0.010398721    83.836834    933.65439 
   22900    264.30453   0.34124827    5.6642292   0.39951613       0.0025    3.9832803 0.0095305242    82.906097    932.43418 
   23000    265.31614   0.34277723    5.6898164   0.39951613       0.0025    4.0665263  0.010213144    82.797361    931.21938 
   23100    266.33417   0.34176797    5.7160167   0.39951613       0.0025    4.5716817 0.0093803332    82.753499    930.00678 
   23200     267.3902   0.34246867     5.742937   0.39951613       0.0025     4.019729  0.010591058    83.441802    928.76123 
   23300    268.42252   0.34091112    5.7688548   0.39951613       0.0025    4.4642549   0.01008475     83.22258    927.52646 
   23400    269.45043   0.34162994     5.794326   0.39951613       0.0025     3.973675  0.010795312    83.595835    926.27442 
   23500    270.49851   0.34189082    5.8209537   0.39951613       0.0025     4.373668 0.0094293164     83.28655    925.03732 
   23600     271.4931   0.34234262    5.8458973   0.39951613       0.0025    4.1564112  0.010452603    83.137131     923.8075 
   23700    272.55246   0.34274503    5.8730931   0.39951613       0.0025    4.2281843 0.0099297544    83.641279    922.55458 
   23800    273.52954     0.341451    5.8982372   0.39951613       0.0025    4.4515621  0.010386846    83.118942     921.3262 
   23900    274.58273   0.34191983    5.9246815   0.39951613       0.0025    4.9290634  0.010010082    83.044754    920.10144 
   24000     275.6113     0.341323    5.9510953   0.39951613       0.0025    4.1987415 0.0093867311    82.297152     918.9115 
   24100    276.62616    0.3419569    5.9768609   0.39951613       0.0025    4.0961643  0.010405135    81.859517     917.7418 
   24200    277.65233    0.3421622    6.0033756   0.39951613       0.0025    4.0432085  0.010165688    83.943464    916.47669 
   24300    278.67829   0.34171116    6.0296332   0.39951613       0.0025    3.9803171  0.010656818    84.033761     915.2082 
   24400    279.70519   0.34202406    6.0555326   0.39951613       0.0025    3.8893865  0.010599183    84.237401    913.93143 
   24500    280.76945   0.34091132    6.0828551   0.39951613       0.0025    4.0292115  0.010700931    83.541139    912.68589 
   24600    281.81754   0.34175887     6.109727   0.39951613       0.0025    4.0937726  0.010808457    83.483755    911.44327 
   24700    282.86158   0.34107606    6.1365703   0.39951613       0.0025    4.0244473  0.010918889    82.824175    910.23009 
   24800    283.89755   0.34141487    6.1630083   0.39951613       0.0025    4.1698684  0.010637143    83.980104    908.96656 
   24900    284.91474   0.34122028    6.1895815   0.39951613       0.0025    4.3285979  0.010677767    83.294473    907.73318 
   25000    285.93053   0.34112442    6.2152147   0.39951613       0.0025    3.8457353  0.010555607    82.433373    906.53768 
   25100    286.96853   0.34208167    6.2416118   0.39951613       0.0025     4.506574  0.010589168     82.26003    905.34968 
   25200    288.00758   0.34142582     6.268905   0.39951613       0.0025    3.7843548 0.0098235692    83.452743    904.10988 
   25300    288.95017   0.34096368    6.2931081   0.39951613       0.0025    4.6590348 0.0096969951    82.897019    902.89413 
   25400    289.97007   0.34320621    6.3193925   0.39951613       0.0025    4.1646123    0.0107181    82.442609    901.69798 
   25500    291.01867   0.34301846    6.3474627   0.39951613       0.0025    4.0978553  0.010443576    82.207099    900.51185 
   25600    292.07466   0.34333965    6.3751548   0.39951613       0.0025    4.2398993   0.01012485    82.484374    899.31361 
   25700    293.02798    0.3436586     6.400076   0.39951613       0.0025    3.7359081  0.011156279    82.578629    898.11125 
   25800    294.05907   0.34369597     6.426221   0.39951613       0.0025    3.9719106  0.010302245    82.986588     896.8917 
   25900    295.07648   0.34342228    6.4516748   0.39951613       0.0025    4.1534921  0.010136222     83.57618    895.64794 
   26000    296.11454   0.34239925    6.4786281   0.39951613       0.0025    4.1669274   0.01036107    81.893241    894.47454 
   26100    297.11356   0.34302814    6.5045535   0.39951613       0.0025    4.3574359 0.0097599547    84.215294    893.20543 
   26200    298.12307   0.34292199    6.5298947   0.39951613       0.0025    4.1786204 0.0098730946    84.291438    891.93392 
   26300    299.13517   0.34204858    6.5555587   0.39951613       0.0025    3.9241076  0.010826679    84.359132     890.6604 
   26400    300.16742   0.34258024    6.5822681   0.39951613       0.0025    4.1138167   0.01111622    82.533732    889.46064 
   26500    301.18428   0.34228211    6.6085451   0.39951613       0.0025    4.2736105 0.0094958222    82.755083     888.2518 
   26600     302.2097   0.34145883    6.6345132   0.39951613       0.0025    3.9499387  0.010804311    84.296977    886.98197 
   26700    303.20868   0.34327128    6.6601711   0.39951613       0.0025    3.9036921  0.010156454    84.242239    885.71488 
   26800    304.17937   0.34252962    6.6853857   0.39951613       0.0025     3.910875 0.0093971039    82.664986    884.51025 
   26900    305.18938   0.34220261    6.7116758   0.39951613       0.0025    3.9798297 0.0097340652     84.24608    883.24389 
   27000    306.17765   0.34360924    6.7374113   0.39951613       0.0025    4.3348691   0.01071382    82.487083    882.04655 
   27100    307.22041   0.34282564    6.7647442   0.39951613       0.0025    3.9306603  0.010282298    83.273851    880.81829 
   27200    308.24672   0.34328954    6.7913107   0.39951613       0.0025    4.3521063  0.010507031    84.726311    879.53514 
   27300    309.26274   0.34263462    6.8171916   0.39951613       0.0025    4.9080023 0.0099200743    84.254017    878.27035 
   27400    310.25182   0.34334238    6.8421465   0.39951613       0.0025    4.1186688  0.010194233    83.951999    877.01745 
   27500    311.28626   0.34289856    6.8693791   0.39951613       0.0025    3.8022012  0.010487599     82.97618    875.80193 
   27600    312.29886   0.34340811    6.8963478   0.39951613       0.0025    4.3008793  0.010589911    83.742763    874.55754 
   27700     313.3124   0.34227585    6.9231777   0.39951613       0.0025    4.0022536  0.010388797    83.735206    873.31381 
   27800    314.36816   0.34263695    6.9507491   0.39951613       0.0025    4.0589985  0.011392527    83.696574    872.07185 
   27900    315.37673   0.34303232     6.976994   0.39951613       0.0025    4.5614761  0.008494647    82.714071    870.86691 
   28000    316.39488   0.34169929    7.0033586   0.39951613       0.0025    3.9394873  0.010854448    82.800107    869.65871 
   28100    317.45504   0.34233897    7.0304197   0.39951613       0.0025    3.8495918 0.0096752285    83.495388    868.42478 
   28200    318.49968   0.34306658    7.0577248   0.39951613       0.0025    4.2788846  0.010637337    82.230742    867.23801 
   28300    319.53139   0.34300865    7.0856798   0.39951613       0.0025    4.6913678 0.0088780655    83.810918    865.99294 
   28400    320.53186   0.34331842    7.1122238   0.39951613       0.0025    4.1752357  0.010240428    83.727283    864.75124 
   28500    321.57759    0.3424165    7.1406662   0.39951613       0.0025    4.0048296 0.0097042143    83.664152    863.51213 
   28600    322.58129   0.34347081    7.1680765   0.39951613       0.0025    4.7870349  0.009894404    84.927495    862.22894 
   28700    323.61248   0.34359054    7.1961939   0.39951613       0.0025    4.2001643  0.010679466    83.779596    860.98657 
   28800    324.63247   0.34332895    7.2242467   0.39951613       0.0025    4.1307613 0.0098435157     83.22618    859.76416 
   28900    325.64155   0.34206191    7.2519682   0.39951613       0.0025     3.999628  0.010922499     83.68011    858.52585 
   29000    326.68658   0.34155851    7.2802518   0.39951613       0.0025    3.7716544  0.010524197     82.57237     857.3271 
   29100    327.71315   0.34226058    7.3076909   0.39951613       0.0025    4.3643317 0.0099985445    83.855406    856.08311 
   29200    328.74724   0.34273844    7.3352981   0.39951613       0.0025    3.9331586  0.010066368    82.652687    854.88155 
   29300    329.77078   0.34266987    7.3625916   0.39951613       0.0025    4.0693825  0.010897811    83.755806    853.64149 
   29400     330.8297   0.34362688    7.3907821   0.39951613       0.0025    4.6744222  0.010148507    83.093402    852.42459 
   29500    331.84325   0.34309065    7.4175212   0.39951613       0.0025    4.3804846  0.010242522    83.534234    851.19261 
   29600    332.85613   0.34334131    7.4439105   0.39951613       0.0025    4.5463307  0.010067985    84.075013    849.94255 
   29700    333.84704   0.34403077    7.4693601   0.39951613       0.0025    4.1354404  0.010625443    83.342984    848.71762 
   29800    334.87055   0.34214993    7.4957893   0.39951613       0.0025    4.0017623     0.010955    75.829389    847.77294 
   29900    335.92747   0.34351791    7.5238612   0.39951613       0.0025    4.0046817  0.010673903     79.65468    846.67727 
   30000    336.93873    0.3425225    7.5504308   0.39951613       0.0025    4.1638497  0.010143387     81.87011    845.50126 
   30100    337.96762   0.34339277    7.5780679   0.39951613       0.0025      4.09512  0.010825802    81.468787    844.33893 
   30200    339.01076   0.34184136    7.6052571   0.39951613       0.0025     4.367022  0.010142249    82.238385    843.14962 
   30300    340.02347    0.3430572    7.6324779   0.39951613       0.0025    4.4495331  0.010119794    82.708004    841.94425 
   30400    341.08869   0.34341448    7.6615751   0.39951613       0.0025    4.0617643  0.010116417    83.606233    840.70912 
   30500    342.10983   0.34239948    7.6886457   0.39951613       0.0025    4.3848044  0.010488456    81.638856    839.53992 
   30600    343.12499   0.34251697    7.7160012   0.39951613       0.0025    4.0192238  0.010784205    82.285625    838.34853 
   30700    344.14466    0.3429526    7.7437721   0.39951613       0.0025    3.8667795 0.0098418023    83.313549    837.12313 
   30800    345.15642    0.3429718    7.7712876   0.39951613       0.0025    4.4290833  0.010200737    82.489321    835.92484 
   30900    346.17377   0.34207456    7.7989253   0.39951613       0.0025    4.3264752   0.01067655    84.137702    834.67334 
   31000    347.18139   0.34273153    7.8254146   0.39951613       0.0025    4.0013094 0.0092264725    82.608637    833.47122 
   31100    348.12185   0.34305924    7.8501212   0.39951613       0.0025    3.9398342 0.0084196235    81.229958    832.31457 
   31200    349.13659   0.34292951    7.8760147   0.39951613       0.0025     4.038451   0.01005899    78.760741    831.24254 
   31300     350.1655   0.34326328    7.9036189   0.39951613       0.0025    4.2460075  0.010527564     79.78816    830.13337 
   31400    351.16708   0.34274633    7.9298016   0.39951613       0.0025    4.4406483  0.010241141     79.55753    829.03121 
   31500     352.2021   0.34302285     7.957056   0.39951613       0.0025     4.341758  0.010020512    82.470409    827.83153 
   31600    353.19808   0.34315028    7.9835883   0.39951613       0.0025    5.0254315 0.0091627673    84.352312    826.57321 
   31700     354.1939   0.34364726    8.0104914   0.39951613       0.0025    4.1407812   0.01072044    83.739887    825.33404 
   31800    355.22937   0.34224611    8.0381272   0.39951613       0.0025    3.9790482 0.0099051748    84.129838    824.08327 
   31900    356.19627   0.34208836    8.0639761   0.39951613       0.0025    4.4199507 0.0099949446    85.192888    822.80123 
   32000     357.2238   0.34441481    8.0908076   0.39951613       0.0025    4.0117442   0.01113244    83.326658    821.57573 
   32100    358.23392   0.34448816    8.1177609   0.39951613       0.0025    3.9742209 0.0099144075    82.324386     820.3813 
   32200    359.25534   0.34369435    8.1449343   0.39951613       0.0025    4.1111082  0.010983312     82.71996    819.17451 
   32300    360.27033   0.34405856    8.1713297   0.39951613       0.0025    4.9959558 0.0094243295    82.327844    817.97977 
   32400    361.27116    0.3433506    8.1974174   0.39951613       0.0025     4.266484  0.010350149    82.961934    816.76554 
   32500     362.3013   0.34397231    8.2237807   0.39951613       0.0025    4.1712625  0.010599333    82.969581    815.55113 
   32600    363.32457    0.3445259    8.2501903   0.39951613       0.0025    4.0116322 0.0095476025    82.651726    814.34636 
   32700    364.29143   0.34348809    8.2760858   0.39951613       0.0025    3.9973858 0.0099778946    83.877776    813.10517 
   32800    365.28397   0.34194592    8.3026502   0.39951613       0.0025     4.052426  0.009990133    83.093945    811.88731 
   32900    366.27546   0.34271151     8.328173   0.39951613       0.0025    4.0479871  0.010360292    83.692449    810.65199 
   33000    367.24506   0.34295751    8.3537007   0.39951613       0.0025    4.0665924 0.0090068831    80.626961    809.50915 
   33100     368.1478   0.34265478    8.3773069   0.39951613       0.0025    4.2987507 0.0088260519     82.43744    808.31067 
   33200    369.10625   0.34325051    8.4021178   0.39951613       0.0025    3.8598504  0.010530587    82.908014    807.09824 
   33300    370.16281   0.34371615    8.4298524   0.39951613       0.0025     4.175332 0.0099297257    83.097896    805.88033 
   33400    371.18449   0.34229668    8.4572224   0.39951613       0.0025    4.6066755 0.0098416396    83.358537    804.65501 
   33500    372.21137   0.34214142    8.4852174   0.39951613       0.0025    4.1304822  0.010871605    82.994306    803.44029 
   33600    373.28834   0.34335431    8.5135207   0.39951613       0.0025    4.6294851 0.0097827558    82.983075    802.22595 
   33700    374.31486   0.34309032    8.5411702   0.39951613       0.0025     4.106824  0.010699156     83.61065    800.99388 
   33800    375.33005   0.34229134    8.5683417   0.39951613       0.0025    4.2004555   0.01058059    83.400605    799.76791 
   33900    376.34907   0.34420446    8.5960703   0.39951613       0.0025    4.2461183 0.0095697607    82.823422     798.5584 
   34000    377.33765   0.34313143    8.6231211   0.39951613       0.0025    4.0027695  0.010376651    82.426764    797.36018 
   34100    378.35427   0.34314431    8.6500075   0.39951613       0.0025    4.1467124  0.010460479    81.550506    796.18705 
   34200     379.3798   0.34376384    8.6773412   0.39951613       0.0025    3.9970503  0.010150829    82.614722    794.98324 
   34300    380.41336   0.34284367    8.7043981   0.39951613       0.0025    4.3221009  0.010204281    83.408334    793.75732 
   34400    381.35306   0.34258452    8.7290801   0.39951613       0.0025    4.2279119 0.0095283485    83.466045    792.52998 
   34500    382.36657     0.342149     8.757025   0.39951613       0.0025    3.7898355 0.0087890537    82.532092    791.32854 
   34600    383.33678   0.34244061     8.783239   0.39951613       0.0025    4.4267028  0.010116008    83.440126    790.10213 
   34700    384.34241   0.34362316    8.8095406   0.39951613       0.0025    4.5510849  0.010728832     83.42816     788.8762 
   34800    385.36659   0.34236987    8.8374163   0.39951613       0.0025    3.9663559  0.010521356    83.682931    787.64359 
   34900    386.36161    0.3431669    8.8646462   0.39951613       0.0025    4.0419079  0.010329606    82.631926    786.43954 
   35000    387.41421   0.34344488    8.8920679   0.39951613       0.0025    4.3577705   0.01008687    82.607628    785.23613 
   35100    388.41505   0.34375406     8.918429   0.39951613       0.0025    4.0053567 0.0099461745    82.907604    784.02457 
   35200    389.43713   0.34327009    8.9453145   0.39951613       0.0025    4.0804448  0.010552709    83.132072    782.80705 
   35300    390.46208   0.34311988    8.9726188   0.39951613       0.0025    3.9105182  0.011178921    83.347373    781.58391 
   35400      391.493   0.34308481     8.999206   0.39951613       0.0025    3.9030463  0.010176225    83.749501     780.3504 
   35500    392.55186   0.34166912     9.025892   0.39951613       0.0025    4.6697594  0.010125638    82.698888    779.14467 
   35600    393.54975   0.34309704    9.0508576   0.39951613       0.0025    4.3859609  0.010325797    84.706924    777.88706 
   35700    394.56132   0.34302752    9.0767391   0.39951613       0.0025    4.2319305  0.010158845    83.965528    776.64866 
   35800    395.57789   0.34271943    9.1025628   0.39951613       0.0025    3.9224766  0.010377524    82.673459     775.4439 
   35900    396.62895    0.3435594    9.1295568   0.39951613       0.0025    4.3437249 0.0098704709    83.066891    774.22889 
   36000     397.6633   0.34320487     9.155985   0.39951613       0.0025    4.1403727 0.0099058629    80.333677    773.08676 
   36100    398.67878   0.34346599    9.1814081   0.39951613       0.0025    4.3654167  0.010027145    82.666631    771.88187 
   36200    399.63593   0.34308143    9.2057534   0.39951613       0.0025    3.8336553 0.0096538317    82.692937    770.67628 
   36300    400.63837   0.34298622    9.2311866   0.39951613       0.0025    3.8977809 0.0099832098    83.615967    769.44724 
   36400    401.68574   0.34273727    9.2581183   0.39951613       0.0025    4.8160395  0.010105763    82.708672    768.24131 
   36500    402.72199   0.34325969    9.2857013   0.39951613       0.0025    4.2781447 0.0098670428    82.989265    767.02825 
   36600     403.7564   0.34311194    9.3127074   0.39951613       0.0025    4.2019312  0.010093566    82.565202    765.82595 
   36700    404.78674   0.34162965    9.3397738   0.39951613       0.0025    4.6828262   0.01044587    82.255658    764.63147 
   36800    405.82708    0.3418497    9.3658289   0.39951613       0.0025    4.1036525  0.010212985    84.137044    763.39018 
   36900    406.83324   0.34190316    9.3917899   0.39951613       0.0025    4.0196224 0.0091086024    83.386429    762.16748 
   37000    407.85197      0.34321    9.4178484   0.39951613       0.0025    3.8858453  0.010553683    83.109011    760.95172 
   37100    408.88114   0.34375426    9.4445632   0.39951613       0.0025    4.4673234 0.0099118787    83.703857    759.72153 
   37200    409.91138   0.34263841    9.4713658   0.39951613       0.0025    4.6533031  0.010660999    83.488408    758.49673 
   37300    410.93391   0.34274685    9.4979426   0.39951613       0.0025    4.4149949  0.010170501    82.206357    757.30348 
   37400    411.96048   0.34358328    9.5254204   0.39951613       0.0025    4.3052007 0.0098552209    83.666823    756.07456 
   37500    412.96039   0.34414902    9.5519573   0.39951613       0.0025     4.220082  0.010441472    83.037996    754.86091 
   37600    413.99301   0.34292033    9.5790546   0.39951613       0.0025     4.774075 0.0089292818    81.571521    753.68324 
   37700    415.01289   0.34283836     9.605918   0.39951613       0.0025    3.9141353  0.010632796    82.398652    752.48498 
   37800    416.04294    0.3429633    9.6323697   0.39951613       0.0025    4.4841653  0.010235832    83.176683    751.26795 
   37900    417.04422   0.34424739    9.6584958   0.39951613       0.0025    3.9911996  0.010303643    83.364949    750.04656 
   38000    418.08421   0.34408806    9.6854262   0.39951613       0.0025    3.7653211  0.010155941    82.930357    748.83553 
   38100    419.12256    0.3439695    9.7125274   0.39951613       0.0025    4.3025175 0.0099796608    81.898278    747.64922 
   38200    420.15536   0.34426478    9.7399602   0.39951613       0.0025    3.6027831  0.010282577    83.754686    746.41895 
   38300    421.19154   0.34340501    9.7663394   0.39951613       0.0025    4.6808076 0.0098388011    83.713312    745.18981 
   38400    422.21968   0.34235191    9.7927998   0.39951613       0.0025    4.1625776 0.0094652609    83.365297    743.96886 
   38500    423.24491   0.34256365    9.8197646   0.39951613       0.0025    4.0794646  0.010827888    84.151916    742.73011 
   38600    424.28475   0.34377182    9.8461165   0.39951613       0.0025    3.8804235  0.010435834      83.6073    741.50393 
   38700    425.31685   0.34390863     9.872566   0.39951613       0.0025    4.6598572  0.010094328    83.665337    740.27659 
   38800    426.35021   0.34382169     9.898604   0.39951613       0.0025     4.114525 0.0093039177    83.371412    739.05606 
   38900    427.33594    0.3433602    9.9230055   0.39951613       0.0025    4.3413221 0.0091201385    84.033391     737.8208 
   39000    428.32873   0.34361005    9.9477629   0.39951613       0.0025    4.1057025  0.010323168    83.120968     736.6062 
   39100    429.32392   0.34318528    9.9727451   0.39951613       0.0025    4.0190677   0.01018954    82.732834    735.40046 
   39200    430.34273   0.34384921    9.9977117   0.39951613       0.0025    4.0576949   0.01062296    84.009389    734.16621 
   39300    431.40121   0.34336776     10.02465   0.39951613       0.0025    4.2506898  0.010191257    84.141382     732.9293 
   39400    432.41146   0.34361747    10.049743   0.39951613       0.0025    4.0469744  0.010418744    83.070757    731.71619 
   39500    433.44383   0.34422895    10.075443   0.39951613       0.0025    3.6816557  0.010434989    82.489597    730.51613 
   39600    434.48246   0.34371714     10.10139   0.39951613       0.0025    4.0549412  0.010873905    82.653371    729.31233 
   39700    435.51898   0.34341068    10.127421   0.39951613       0.0025    4.1261081 0.0089170067    82.649348     728.1086 
   39800     436.5448    0.3427156    10.153432   0.39951613       0.0025    4.0906539   0.01013509    82.073969    726.91767 
   39900    437.52613   0.34294327     10.17791   0.39951613       0.0025    4.1782716  0.010216764    81.361877    725.74265 
   40000    438.58607    0.3428583     10.20413   0.39951613       0.0025    4.2692141  0.010310987      82.7368    724.53674 
   40100     439.5889   0.34193022    10.229353   0.39951613       0.0025    4.3192909  0.010614442    82.289822    723.34061 
   40200     440.5805   0.34274462     10.25417   0.39951613       0.0025    5.1450809 0.0096872387     82.95204    722.12996 
   40300    441.55283   0.34393918     10.27856   0.39951613       0.0025    4.2633701  0.010279398    82.679065    720.92523 
   40400    442.54934   0.34249623     10.30378   0.39951613       0.0025    4.2949653  0.010707444    82.406456    719.72638 
   40500    443.57857    0.3437537    10.329583   0.39951613       0.0025    4.4106328 0.0094391996    82.874006     718.5174 
   40600    444.62573   0.34355038    10.356591   0.39951613       0.0025    3.9418865  0.010440542    83.372804    717.29787 
   40700     445.6578   0.34359043    10.382031   0.39951613       0.0025    4.7453632  0.010276703    83.149014    716.08314 
   40800     446.6961   0.34365772    10.406631   0.39951613       0.0025    3.9675988  0.010902408    82.382436    714.88471 
   40900    447.71726   0.34389451    10.430374   0.39951613       0.0025    4.2387118  0.010844725    81.322959    713.70905 
   41000     448.7653    0.3438315    10.455823   0.39951613       0.0025    4.6324067 0.0099087259    81.327595    712.53303 
   41100    449.78564   0.34394419    10.480052   0.39951613       0.0025    3.8685407  0.009640556    84.145399    711.29774 
   41200     450.7461   0.34265863    10.502757   0.39951613       0.0025    4.1009171  0.009382859    83.042008    710.08521 
   41300    451.70367   0.34288583    10.525853   0.39951613       0.0025     4.397852 0.0099987254    82.441102     708.8852 
   41400    452.71679   0.34348512     10.54995   0.39951613       0.0025    3.8518521  0.009825633    82.045841     707.6934 
   41500    453.73203   0.34344443    10.574415   0.39951613       0.0025    3.8968609  0.010563149    80.783275    706.52832 
   41600    454.77838    0.3440112    10.599938   0.39951613       0.0025     3.803132  0.010717538    78.718021    705.40848 
   41700    455.79091   0.34402577    10.625651   0.39951613       0.0025    4.0778096 0.0095731101    79.016841    704.28121 
   41800    456.80024   0.34400765    10.650302   0.39951613       0.0025    4.1377762  0.010304336    79.395006    703.14488 
   41900    457.83859   0.34276344    10.676458   0.39951613       0.0025    4.5626661  0.010673872    78.789428    702.02138 
   42000    458.88567   0.34369855    10.702508   0.39951613       0.0025    3.7951929 0.0093078126    77.412263    700.92838 
   42100    459.86271   0.34354836    10.727042   0.39951613       0.0025    4.0264641  0.010762203    79.200395    699.79431 
   42200    460.87805   0.34276198    10.752268   0.39951613       0.0025    3.7966397  0.010794672    78.884874    698.66656 
   42300    461.92052   0.34389265    10.777682   0.39951613       0.0025     4.474509  0.010001295    78.853033    697.53884 
   42400    462.93783   0.34434891    10.802815   0.39951613       0.0025    4.6890945  0.010234681    79.506813    696.39629 
   42500     463.9841   0.34291439    10.827398   0.39951613       0.0025    4.3291184  0.010993209     82.20871    695.19728 
   42600    465.00561   0.34419987    10.851756   0.39951613       0.0025    4.2208629  0.010438945    83.649953    693.96994 
   42700    465.99458   0.34300293    10.875557   0.39951613       0.0025    4.0935378 0.0090193474    82.841531    692.75841 
   42800    466.95282   0.34209629    10.898126   0.39951613       0.0025    4.5129271 0.0099107916    77.963954    691.64782 
   42900     467.9807   0.34283613    10.922423   0.39951613       0.0025    4.3481193  0.010177629    78.684337     690.5208 
   43000    468.98373   0.34376134     10.94562   0.39951613       0.0025    3.8824635   0.01063207    77.066058     689.4285 
   43100    469.95006   0.34391919    10.968332   0.39951613       0.0025    5.1696937 0.0090665213    78.800782    688.29752 
   43200    470.93885   0.34408099    10.991714   0.39951613       0.0025     3.934839  0.010973065    78.862299    687.16461 
   43300    471.96169   0.34425301    11.015764   0.39951613       0.0025    3.7412209  0.010258342    81.449881    685.97832 
   43400    472.97384   0.34448744    11.039502   0.39951613       0.0025    4.0711515  0.010066927    84.054727    684.74222 
   43500    473.99195   0.34292728    11.063009   0.39951613       0.0025    3.8638286   0.01045376    81.550443    683.55378 
   43600      475.024   0.34435806    11.086335   0.39951613       0.0025    4.1267859  0.010156711    82.522073     682.3465 
   43700    476.05522   0.34332046     11.11055   0.39951613       0.0025    4.4188812  0.010158483    82.498375    681.13964 
   43800    477.07716   0.34417622    11.134773   0.39951613       0.0025    3.8591421  0.010085566    81.567936     679.9505 
   43900    478.10084   0.34397424    11.160534   0.39951613       0.0025    4.6108211 0.0098918986    81.937396    678.75413 
   44000    479.15223    0.3431423    11.187604   0.39951613       0.0025    4.0263344 0.0097473049    80.849689    677.57855 
   44100    480.17933   0.34368102     11.21342   0.39951613       0.0025    3.9963311   0.01089425    83.375654    676.35518 
   44200    481.24259   0.34398937    11.240154   0.39951613       0.0025    4.0382468  0.010080498    82.730027    675.14375 
   44300    482.23488   0.34298913    11.265792   0.39951613       0.0025    4.0300893 0.0094055406    83.221193    673.92336 
   44400    483.24366   0.34376807    11.291961   0.39951613       0.0025     4.400595  0.010444583     83.98039    672.68944 
   44500    484.26574   0.34452047    11.318889   0.39951613       0.0025    4.3127475 0.0098995361    82.409872    671.48403 
   44600    485.30431   0.34404234    11.345467   0.39951613       0.0025    4.6489698  0.010247338    81.899813    670.28796 
   44700    486.34037   0.34433066    11.371308   0.39951613       0.0025    4.0312481  0.010665457    82.156843    669.08706 
   44800    487.32958   0.34369536    11.395712   0.39951613       0.0025    4.1314078 0.0088144248    82.587637    667.87826 
   44900    488.33789   0.34306674    11.421514   0.39951613       0.0025    4.0579669  0.010573904    84.046036    666.64367 
   45000    489.34946    0.3441469    11.447722   0.39951613       0.0025    4.1705324 0.0094544033    83.593253    665.41716 
   45100    490.36689   0.34457459    11.473339   0.39951613       0.0025    3.6312727  0.010839803    83.550341    664.19152 
   45200    491.39614   0.34269492    11.500249   0.39951613       0.0025    3.8568124  0.010332963    83.676337    662.96383 
   45300    492.43663   0.34296949    11.526841   0.39951613       0.0025    4.1394093  0.009653923    81.692537    661.77133 
   45400     493.4614   0.34382807    11.552352   0.39951613       0.0025    4.1535222 0.0099997745    83.910649    660.53977 
   45500    494.50814   0.34278227    11.578244   0.39951613       0.0025    3.8482439  0.011032175    82.429906    659.33403 
   45600    495.48018   0.34390549    11.601822   0.39951613       0.0025    3.9808132  0.009219108    83.016959    658.11802 
   45700    496.44682   0.34217583    11.626202   0.39951613       0.0025    3.9142714 0.0099954208    84.361134    656.87926 
   45800    497.45668   0.34433273    11.651663   0.39951613       0.0025    4.2984722  0.011164728    83.804036    655.65006 
   45900    498.37638   0.34371521    11.675414   0.39951613       0.0025    5.3143646 0.0081597999    82.473004    654.44371 
   46000    499.37537   0.34257467    11.700914   0.39951613       0.0025    3.7097211  0.010673688    80.882321    653.26532 
   46100    500.39752   0.34388731    11.726702   0.39951613       0.0025    4.1264541  0.010953701    82.994651     652.0499 
   46200    501.43295   0.34278153    11.752074   0.39951613       0.0025    4.2904636   0.01070438     82.79777    650.83785 
   46300    502.50267   0.34417502    11.779591   0.39951613       0.0025     4.292896 0.0098862715    82.627075    649.62872 
   46400    503.49661   0.34370366    11.804532   0.39951613       0.0025    4.4995063  0.010908846    83.116817    648.41135 
   46500     504.5098   0.34389761    11.829485   0.39951613       0.0025    3.9411183  0.011361311    82.394994    647.20616 
   46600    505.56033    0.3447807     11.85596   0.39951613       0.0025    4.1141025  0.010457006    82.163457    646.00486 
   46700    506.59551   0.34414531    11.880849   0.39951613       0.0025    4.2014858  0.010418232    82.821705    644.79245 
   46800    507.61188   0.34318481    11.906254   0.39951613       0.0025    3.5194239 0.0099160849    80.423541    643.62099 
   46900    508.61715    0.3434839     11.93108   0.39951613       0.0025     4.536527 0.0098724196    83.549875    642.39654 
   47000    509.62256   0.34451172    11.954435   0.39951613       0.0025    4.2894372 0.0099361929    82.244545    641.19363 
   47100    510.64982   0.34499562    11.978881   0.39951613       0.0025    4.1340397 0.0099436586    82.446822    639.98732 
   47200    511.65763   0.34391978    12.003555   0.39951613       0.0025       4.4023  0.010281307    83.059176    638.77098 
   47300    512.69275   0.34344139    12.028951   0.39951613       0.0025    3.9060756 0.0096475875    83.293001    637.55092 
   47400    513.72318   0.34306694    12.054613   0.39951613       0.0025    4.0612659  0.011260228    83.386429    636.32945 
   47500     514.7234   0.34327986     12.07867   0.39951613       0.0025    3.9064793  0.010707761    83.623219    635.10432 
   47600    515.78262   0.34314318     12.10474   0.39951613       0.0025    4.7246931  0.010102003    82.904442    633.89073 
   47700    516.80161    0.3436919    12.129306   0.39951613       0.0025    4.0763185  0.010547646    83.484719    632.66798 
   47800    517.79867   0.34309044    12.153279   0.39951613       0.0025    4.1883221  0.010315171    82.974752    631.45337 
   47900    518.81203   0.34395283    12.177151   0.39951613       0.0025    4.2773543 0.0089464372     82.85621    630.24067 
   48000    519.70299   0.34381036    12.198918   0.39951613       0.0025    3.9523223 0.0092436276    81.535541    629.04918 
   48100    520.64338   0.34365465    12.221954   0.39951613       0.0025    3.9668097 0.0095187279      83.9353    627.81971 
   48200    521.62686   0.34425091    12.245827   0.39951613       0.0025    3.9282668  0.010519285    80.602449    626.64334 
   48300    522.69148   0.34608542    12.271498   0.39951613       0.0025    4.3475047  0.010983647    84.102307    625.41144 
   48400    523.69617   0.34375388    12.295954   0.39951613       0.0025    3.9493575  0.010707854    83.648201    624.18659 
   48500    524.72349    0.3447918    12.320779   0.39951613       0.0025    4.3365162  0.010557418      82.8405    622.97425 
   48600    525.75026   0.34346849    12.344049   0.39951613       0.0025    4.0447794   0.01085114    81.539741    621.78229 
   48700    526.80667   0.34415337    12.368443   0.39951613       0.0025    4.0151127  0.010811411    82.292195    620.57838 
   48800      527.835   0.34375994    12.393036   0.39951613       0.0025     4.274376  0.010294107    76.489555    619.47114 
   48900    528.88134   0.34473338    12.417851   0.39951613       0.0025    3.7307513  0.010139591     76.64039     618.3604 
   49000    529.88943   0.34305513    12.441708   0.39951613       0.0025    4.1497921  0.010138378    74.940159    617.27967 
   49100    530.88519    0.3438892    12.464629   0.39951613       0.0025    3.9551525   0.01049434    75.302742    616.19125 
   49200     531.9107   0.34259356    12.489061   0.39951613       0.0025    4.1616856  0.010535856    75.506463    615.09816 
   49300    532.94366   0.34439878    12.513482   0.39951613       0.0025    3.8477688 0.0097655332    75.137801    614.01081 
   49400    533.94538   0.34331461    12.537446   0.39951613       0.0025    4.4556116  0.010467054    76.272873    612.90219 
   49500    534.96616   0.34358911    12.561816   0.39951613       0.0025    4.1726402 0.0098133785    75.543372    611.80566 
   49600    535.95966   0.34330853    12.585456   0.39951613       0.0025    3.8521205  0.010086373    76.638976      610.689 
   49700    537.00616   0.34343912    12.610915   0.39951613       0.0025    4.0464308   0.01075781    75.748563    609.58709 
   49800    538.06585   0.34203191    12.636724   0.39951613       0.0025    4.4888275  0.010130078    77.550399    608.45339 
   49900    539.08493   0.34265044    12.661968   0.39951613       0.0025    4.9114176 0.0091141341    84.618555    607.21093 
   50000    540.11941   0.34184291     12.68795   0.39951613       0.0025     4.100878  0.010327924    82.281428    606.00227 
   50100    541.15342   0.34263894    12.712761   0.39951613       0.0025    4.0698123 0.0096994181    82.882669    604.78481 
   50200     542.1606   0.34347631    12.737081   0.39951613       0.0025    3.7606437  0.010678656    83.437138    603.55944 
   50300    543.15194    0.3437021    12.760586   0.39951613       0.0025    4.5692896  0.010220791    84.480587    602.31955 
   50400     544.1896   0.34335374    12.786047   0.39951613       0.0025    4.1696394  0.010573607    84.541633    601.07904 
   50500    545.22748   0.34380383    12.810178   0.39951613       0.0025    3.5881889 0.0096620495    83.290238    599.85617 
   50600     546.2734   0.34428469    12.835414   0.39951613       0.0025    4.2088355 0.0087636059    83.793923    598.62635 
   50700    547.25297   0.34415722    12.858848   0.39951613       0.0025    4.5237429 0.0098714835    83.935921    597.39471 
   50800     548.2807   0.34429387    12.883445   0.39951613       0.0025    4.4303907  0.010544935    84.180391    596.15988 
   50900    549.31143   0.34368206    12.908584   0.39951613       0.0025    4.3078418  0.009868123    83.400754    594.93595 
   51000    550.33227   0.34445774    12.933361   0.39951613       0.0025    4.7174151  0.010352069    80.293169    593.75669 
   51100    551.35122   0.34371991    12.958056   0.39951613       0.0025    4.0628435  0.010783854    82.790971    592.54123 
   51200    552.38829   0.34522701    12.983149   0.39951613       0.0025    4.0765499  0.010408503    83.199947    591.32013 
   51300    553.39835   0.34556893    13.007699   0.39951613       0.0025    4.3507891 0.0097493125    82.379717    590.11047 
   51400    554.41323   0.34516316    13.032173   0.39951613       0.0025    3.9058191  0.010318676    82.819236     588.8947 
   51500    555.44592   0.34455003    13.057494   0.39951613       0.0025    4.0282406  0.010522143    83.339854    587.67185 
   51600    556.49559   0.34497842    13.083311   0.39951613       0.0025    3.9174633  0.010609676    84.349886    586.43563 
   51700    557.51058   0.34434932    13.108719   0.39951613       0.0025    4.3147644  0.010464975     82.06146    585.23048 
   51800    558.54556   0.34472966    13.135066   0.39951613       0.0025    4.4327124 0.0096480162    82.483887    584.01948 
   51900    559.52079   0.34438597     13.15997   0.39951613       0.0025    4.6301666 0.0090739509    82.374217    582.80996 
   52000    560.48194   0.34342945    13.184466   0.39951613       0.0025    4.0802908  0.010853311     81.44569     581.6132 
   52100    561.52311   0.34381572    13.210428   0.39951613       0.0025    3.9491427  0.011289443    81.600959    580.41418 
   52200    562.56906   0.34357174    13.236997   0.39951613       0.0025    4.2242454  0.010588835    83.451614    579.19017 
   52300    563.56291   0.34370449    13.261293   0.39951613       0.0025    4.1566196   0.01066943      83.0896    577.97102 
   52400    564.61064    0.3438285    13.287905   0.39951613       0.0025    3.8885854   0.01063996     82.50941    576.75962 
   52500    565.63872   0.34471267    13.314066   0.39951613       0.0025    4.2944665  0.010702374    82.818483    575.54412 
   52600    566.69708   0.34384228     13.34114   0.39951613       0.0025    4.2817096  0.010117928    83.098506    574.32498 
   52700     567.7209   0.34461813    13.367155   0.39951613       0.0025    4.5385175  0.010219875    83.541704    573.10018 
   52800    568.72254   0.34381455    13.393226   0.39951613       0.0025    4.3887555 0.0097867612    83.147431    571.88055 
   52900    569.74383     0.343802     13.41992   0.39951613       0.0025    4.3113874 0.0098548049    82.722489    570.66649 
   53000    570.75145   0.34450855    13.445965   0.39951613       0.0025    3.8821717  0.010637547    82.012328    569.46174 
   53100    571.76611   0.34315778    13.473065   0.39951613       0.0025    4.5023843   0.01067866    84.882069    568.22051 
   53200    572.78824    0.3436602    13.500091   0.39951613       0.0025    4.3728183  0.010325952    84.004897    566.99035 
   53300    573.82613   0.34341442    13.528246   0.39951613       0.0025    4.1398191   0.01004984    84.674792    565.75208 
   53400    574.86858   0.34308309    13.555849   0.39951613       0.0025    3.9127731  0.010278982    83.617767    564.52706 
   53500    575.90341   0.34306664    13.582372   0.39951613       0.0025     5.177732 0.0089928957    83.842046    563.29936 
   53600    576.91227   0.34363723    13.608006   0.39951613       0.0025    4.4019866 0.0098490361    83.551057    562.07539 
   53700    577.89742   0.34349033    13.633258   0.39951613       0.0025    5.7333256 0.0083669202    83.956503    560.84654 
   53800    578.83038   0.34348746    13.657493   0.39951613       0.0025    3.9259147  0.011001437    83.622802    559.62191 
   53900    579.88245   0.34331747    13.685156   0.39951613       0.0025    4.2273455  0.010236541    83.995644    558.39285 
   54000    580.86939   0.34351842    13.711532   0.39951613       0.0025    4.0772851  0.010038019    83.562925    557.16918 
   54100    581.86722   0.34378455    13.738538   0.39951613       0.0025    3.9079428 0.0096556333    81.103061    555.97641 
   54200    582.84164   0.34328001    13.764682   0.39951613       0.0025    4.6004204  0.010273256     82.05324    554.77142 
   54300    583.85128   0.34343067    13.791344   0.39951613       0.0025    3.9316733  0.010163635    81.143605    553.57788 
   54400    584.87388   0.34377335    13.818226   0.39951613       0.0025    3.9724615  0.010587875     82.73946    552.36427 
   54500    585.89972   0.34366783    13.844817   0.39951613       0.0025    4.5434791   0.01063859     81.88157    551.16125 
   54600    586.88787   0.34274143    13.870659   0.39951613       0.0025    4.3243619 0.0095946786    83.458738    549.93898 
   54700    587.87911   0.34399573    13.896428   0.39951613       0.0025    4.1040471  0.010326451    81.878693    548.73594 
   54800    588.89277   0.34439639    13.922499   0.39951613       0.0025    4.3084223 0.0097215167    84.058753    547.50671 
   54900     589.8946   0.34419468    13.948333   0.39951613       0.0025    4.0538017  0.010446615    85.051369    546.26622 
   55000    590.93941   0.34429789    13.974327   0.39951613       0.0025     4.265992  0.010058031    83.105075    545.04849 
   55100    591.98013   0.34439941    14.001156   0.39951613       0.0025     3.929766  0.010110768    83.921125    543.82128 
   55200    593.02335   0.34461232    14.027533   0.39951613       0.0025    4.1446488  0.010840253    84.540287    542.58712 
   55300    594.01839   0.34430385    14.052201   0.39951613       0.0025    4.4470545  0.009106887    82.455332    541.37732 
   55400    595.00751   0.34410291    14.077181   0.39951613       0.0025    3.8751596  0.010398373    83.403176    540.15641 
   55500    596.04574   0.34390751     14.10312   0.39951613       0.0025    4.6506175  0.009342227    79.652275    538.98085 
   55600    597.08997   0.34395608    14.128749   0.39951613       0.0025    3.9613388  0.010595354    78.407761    537.82092 
   55700    598.11499   0.34416633    14.154916   0.39951613       0.0025    4.2979223 0.0098122194    79.194802    536.65049 
   55800      599.117   0.34345013    14.180397   0.39951613       0.0025    4.1535273 0.0089529094    78.952779     535.4828 
   55900    600.14891   0.34466918    14.205726   0.39951613       0.0025    4.3462014 0.0099128238    81.174165    534.28741 
   56000    601.16671    0.3434058    14.231368   0.39951613       0.0025    4.7545065 0.0098096466     81.76554    533.08489 
   56100     602.2004   0.34371941    14.257583   0.39951613       0.0025     4.277081  0.010134022    83.114676    531.86676 
   56200    603.23788   0.34365753    14.282565   0.39951613       0.0025    4.0219485  0.010594337    84.330976    530.63516 
   56300     604.2647   0.34427941     14.30737   0.39951613       0.0025    4.1367156 0.0098545163    81.067227    529.44077 
   56400    605.25902   0.34345215    14.331711   0.39951613       0.0025    3.6026074  0.010633369    83.149228    528.22238 
   56500    606.31031   0.34301776    14.357321   0.39951613       0.0025    4.2825799 0.0094058846    81.715376    527.02028 
   56600    607.30533   0.34357789    14.381838   0.39951613       0.0025    3.8211935  0.010494275    82.306422    525.81137 
   56700    608.37456   0.34362606    14.407872   0.39951613       0.0025     4.613796  0.010744026      83.0624    524.59399 
   56800    609.34251   0.34442674    14.431334   0.39951613       0.0025    4.0739313 0.0097848422    82.049613    523.38797 
   56900    610.34985   0.34199502    14.456437   0.39951613       0.0025    4.4990954  0.010580532    82.959456    522.17177 
   57000    611.39081   0.34437607    14.481984   0.39951613       0.0025    4.3630812 0.0097408056    81.593895    520.97083 
   57100    612.41871   0.34381192    14.507283   0.39951613       0.0025    4.0901754  0.011220284    82.843511    519.75592 
   57200    613.48493   0.34411733    14.533384   0.39951613       0.0025    4.4904702 0.0099401315    83.006428    518.53926 
   57300    614.51327   0.34383358    14.559121   0.39951613       0.0025    4.4912347  0.010329237    80.814935    517.34699 
   57400    615.49038   0.34375341    14.581856   0.39951613       0.0025    5.0456731  0.009727143     82.71107     516.1335 
   57500     616.4631   0.34374318    14.604794   0.39951613       0.0025    4.0376877  0.009455644    83.482625    514.91178 
   57600     617.4562   0.34339074    14.628924   0.39951613       0.0025    4.3973257 0.0095696734    81.916256    513.70699 
   57700    618.41431   0.34303801    14.652061   0.39951613       0.0025    3.9451128 0.0097530983    82.879083    512.49176 
   57800    619.41466     0.342976    14.676806   0.39951613       0.0025     4.177001  0.010407943     83.67208     511.2682 
   57900    620.43301   0.34366773    14.702538   0.39951613       0.0025    4.1193855  0.010848078    81.166986    510.07157 
   58000    621.44952   0.34437851    14.727997   0.39951613       0.0025    4.0327965  0.010415603    82.390025    508.86156 
   58100    622.48658   0.34274785    14.754285   0.39951613       0.0025    4.3431266  0.010350112    82.740782    507.64784 
   58200    623.51977   0.34332799     14.77937   0.39951613       0.0025     4.330762 0.0095495297    83.614967    506.42506 
   58300    624.55272   0.34370314    14.804251   0.39951613       0.0025    4.1191891  0.010357929    83.120408    505.20746 
   58400    625.60902   0.34415239    14.829152   0.39951613       0.0025    3.6787005 0.0096583247    82.159353    503.99993 
   58500     626.6109   0.34378951    14.853696   0.39951613       0.0025    4.2363017    0.0107503    82.418487    502.78965 
   58600    627.63804   0.34319864    14.878698   0.39951613       0.0025    4.6085782   0.01000583    82.755426    501.57588 
   58700    628.59852   0.34250968    14.902552   0.39951613       0.0025    4.6773545  0.010489102    82.769862    500.36198 
   58800    629.66369   0.34179428    14.928553   0.39951613       0.0025    4.2296783 0.0099888181     83.59262    499.13976 
   58900    630.71833   0.34309648    14.953903   0.39951613       0.0025    3.9832233  0.010870325    79.785853    497.95746 
   59000    631.78556   0.34307149    14.979967   0.39951613       0.0025    4.8917426 0.0099412936    79.099098    496.78248 
   59100    632.79539   0.34220272    15.005132   0.39951613       0.0025    3.9771775  0.010415952    81.755977    495.57876 
   59200    633.79707    0.3428275    15.029428   0.39951613       0.0025    4.3318743  0.010367561    84.531784     494.3473 
   59300    634.80338   0.34427172    15.053513   0.39951613       0.0025    3.9624415 0.0094014871    83.381621     493.1272 
   59400    635.78606   0.34368867     15.07675   0.39951613       0.0025    4.4974568 0.0096972372    84.067312    491.90049 
   59500    636.78032    0.3435284    15.099763   0.39951613       0.0025     3.942841 0.0089470492    83.955242    490.67498 
   59600    637.80795   0.34329587    15.124082   0.39951613       0.0025      4.14829 0.0099037798    83.934376    489.44979 
   59700    638.81913   0.34441199    15.148416   0.39951613       0.0025     3.939382  0.011084278     83.18795    488.23192 
   59800    639.86531    0.3435389    15.173604   0.39951613       0.0025    4.4092106 0.0092713726     84.67845    486.99989 
   59900    640.89319   0.34408338    15.197263   0.39951613       0.0025    4.0941744  0.010606265    83.906771     485.7753 
   60000    641.89643   0.34346937    15.220631   0.39951613       0.0025    4.1396844   0.01062505    82.136265    484.56794 
   60100    642.93536   0.34425096    15.245695   0.39951613       0.0025    3.9075254 0.0099637833     82.89502    483.35315 
   60200    643.96147    0.3442623     15.26983   0.39951613       0.0025     3.846107  0.010798064    84.179209    482.12622 
   60300    645.00153   0.34405817    15.294681   0.39951613       0.0025    3.9742913  0.010646501    84.210239    480.89914 
   60400    646.03454   0.34376524    15.319725   0.39951613       0.0025    4.7923752  0.010399711    83.100514    479.68258 
   60500    647.08629   0.34249451    15.344941   0.39951613       0.0025    4.0926456  0.010874913    84.204068    478.45577 
   60600    648.08084   0.34270473    15.368782   0.39951613       0.0025    3.9956626 0.0094879871     84.41234    477.22718 
   60700    649.09411   0.34267408     15.39375   0.39951613       0.0025     4.073781  0.010568445    83.565772    476.00651 
   60800    650.15764   0.34235475    15.418825   0.39951613       0.0025    4.0721273  0.010818231    81.524907    474.80523 
   60900     651.1925    0.3424757    15.443898   0.39951613       0.0025    4.6932164 0.0096146883    82.036485    473.59895 
   61000    652.19441    0.3439591    15.466828   0.39951613       0.0025    3.9055609  0.010504624    81.585769    472.39694 
   61100    653.21811   0.34302733    15.491911   0.39951613       0.0025    4.3395294  0.010179707    83.508338    471.17689 
   61200    654.22321   0.34237911    15.516267   0.39951613       0.0025     4.158736  0.010257393    83.986898    469.95258 
   61300    655.22061   0.34356121    15.540811   0.39951613       0.0025    4.2305268  0.010999986    83.555518    468.73227 
   61400    656.22834   0.34299631    15.565686   0.39951613       0.0025    4.2664839  0.010261547    84.844912     467.5006 
   61500    657.24915    0.3436767    15.590159   0.39951613       0.0025    4.3663915  0.010934383    83.400124    466.28188 
   61600    658.28603   0.34268803    15.615643   0.39951613       0.0025    3.8757733  0.010592003    84.166726    465.05642 
   61700    659.30018   0.34248101    15.640373   0.39951613       0.0025    4.2403515 0.0099306777    84.676091    463.82664 
   61800    660.32307   0.34357195    15.664897   0.39951613       0.0025    3.7551215  0.010781741    84.232156    462.60087 
   61900    661.35052   0.34373584    15.689484   0.39951613       0.0025    4.0595813 0.0099016818    85.200571    461.36692 
   62000    662.34725   0.34361125    15.713644   0.39951613       0.0025    4.0678653  0.010259747    84.264884    460.14114 
   62100    663.33655   0.34362547    15.737331   0.39951613       0.0025    4.5899987   0.01009701    83.513659    458.92201 
   62200    664.36813    0.3437834    15.762447   0.39951613       0.0025     3.767289   0.01023201    84.191307     457.6971 
   62300    665.36306   0.34367938    15.786486   0.39951613       0.0025     4.522628 0.0090078859    84.018089    456.47378 
   62400    666.35188   0.34306651    15.810807   0.39951613       0.0025    3.9451467  0.010921312    84.973968     455.2425 
   62500    667.41558   0.34247344    15.837313   0.39951613       0.0025    3.8619084  0.010468025    84.214145    454.01777 
   62600    668.44784   0.34272853      15.8626   0.39951613       0.0025    3.8196392  0.010468072    84.569742    452.79017 
   62700    669.43178   0.34273006    15.886414   0.39951613       0.0025    4.0566988   0.01063987    83.917113    451.56819 
   62800    670.46923   0.34404337    15.911454   0.39951613       0.0025     4.085305  0.010301105    83.700282    450.34813 
   62900    671.47893   0.34309533    15.935889   0.39951613       0.0025    4.6332152 0.0097531303     84.19898    449.12398 
   63000    672.50054   0.34272872    15.960462   0.39951613       0.0025    3.9701868 0.0092305969    82.002435    447.91863 
   63100    673.49993   0.34341336    15.984836   0.39951613       0.0025    3.7956303  0.010698561    81.609533    446.71667 
   63200    674.49885    0.3444872    16.008743   0.39951613       0.0025    4.3969132   0.01043966    82.474707    445.50715 
   63300    675.53726   0.34286427    16.034359   0.39951613       0.0025    4.0816018 0.0092613911    83.979196    444.28503 
   63400    676.55453   0.34175778    16.059625   0.39951613       0.0025    4.4254998  0.010845693    81.717112    443.08203 
   63500    677.59312   0.34333228     16.08489   0.39951613       0.0025    3.8141052   0.01062024    83.447165    441.86439 
   63600    678.61014   0.34460402    16.109487   0.39951613       0.0025    4.6200434  0.009612227    84.442845    440.63872 
   63700    679.62874   0.34430644    16.134013   0.39951613       0.0025    4.0305396  0.010170293    84.461737    439.41303 
   63800    680.64261   0.34389901    16.158519   0.39951613       0.0025    4.4897268  0.010076407    84.024923    438.19096 
   63900    681.64628   0.34365099    16.182768   0.39951613       0.0025      4.33695  0.010336447    83.971798    436.96942 
   64000    682.65442    0.3428289    16.207479   0.39951613       0.0025    4.4936235 0.0098616629    83.532703    435.75149 
   64100    683.68221   0.34356887    16.232001   0.39951613       0.0025    4.4320358 0.0099776604    82.236369     434.5442 
   64200    684.72492   0.34329532    16.256993   0.39951613       0.0025    3.9260677 0.0095173838    83.189617    433.32911 
   64300     685.7117   0.34470766    16.280256   0.39951613       0.0025    4.1264532  0.010613268    83.543934    432.11123 
   64400    686.71014   0.34380371    16.303887   0.39951613       0.0025    4.3369768  0.010198862    83.769925    430.89163 
   64500    687.71871   0.34366604    16.328382   0.39951613       0.0025     3.783033 0.0098319097    82.822654    429.67962 
   64600    688.69608   0.34422644     16.35219   0.39951613       0.0025    3.8374563 0.0093428055    83.920437    428.45898 
   64700    689.70307   0.34327555    16.377027   0.39951613       0.0025    4.3601322  0.010235164    83.955646    427.23815 
   64800    690.71097   0.34328967    16.401423   0.39951613       0.0025    4.0537615  0.011170879    83.023663    426.02468 
   64900    691.74362   0.34294261    16.426631   0.39951613       0.0025     3.703366  0.011112425     82.39336    424.81621 
   65000    692.78299    0.3442783    16.451042   0.39951613       0.0025    4.3338816   0.01017184    81.527965    423.61467 
   65100    693.81897   0.34436684    16.476355   0.39951613       0.0025    4.3859456 0.0095960596    83.787111    422.39532 
   65200    694.81178   0.34295536    16.500431   0.39951613       0.0025    3.9221039 0.0096205371    84.675288    421.16937 
   65300    695.82127   0.34392168     16.52513   0.39951613       0.0025    5.0526616 0.0097733412    82.637119    419.95904 
   65400    696.80567   0.34301395    16.549119   0.39951613       0.0025    4.1436661   0.01049541    83.475863    418.74227 
   65500    697.82843   0.34394337    16.573401   0.39951613       0.0025    4.0592786 0.0089113077    83.701902    417.52386 
   65600    698.81363   0.34292179    16.598193   0.39951613       0.0025    4.1068694  0.010064857    82.048794    416.31814 
   65700    699.81503   0.34392985    16.622614   0.39951613       0.0025    4.1760256  0.010690632    83.651488    415.10019 
   65800    700.84114   0.34532687    16.647335   0.39951613       0.0025    4.2917903 0.0095464005    84.239042    413.87798 
   65900    701.84296   0.34247528    16.671851   0.39951613       0.0025    4.2004386  0.010157422      83.1962    412.66357 
   66000    702.84668   0.34352004    16.696785   0.39951613       0.0025    4.2485537   0.01024829    82.744063    411.45258 
   66100    703.87016   0.34339061    16.721709   0.39951613       0.0025     4.447055  0.010317789    82.724267    410.24175 
   66200    704.89258   0.34209197    16.747065   0.39951613       0.0025    4.2196986  0.011002415    83.902693    409.02226 
   66300    705.90076   0.34344705    16.771829   0.39951613       0.0025    4.0030081  0.010333138    83.674868    407.80449 
   66400    706.91287   0.34348881    16.797389   0.39951613       0.0025    3.7924395  0.010446104    83.792517    406.58595 
   66500     707.8992   0.34299663    16.822505   0.39951613       0.0025    4.4078571  0.010224702     84.01299    405.36591 
   66600    708.91688   0.34236711    16.847568   0.39951613       0.0025    3.7978976  0.010227457    83.614133     404.1488 
   66700    709.95703   0.34220059    16.873747   0.39951613       0.0025    3.9693744  0.011061869    83.200425    402.93473 
   66800    710.99449   0.34283703    16.898884   0.39951613       0.0025    3.7416718  0.010556246    80.315679    401.74214 
   66900    712.02372   0.34247734    16.925037   0.39951613       0.0025    4.7444332  0.010163554    79.484996    400.55584 
   67000    713.04607   0.34305859    16.950331   0.39951613       0.0025    4.2405688  0.010034437    80.654977    399.36034 
   67100    714.08603   0.34380124    16.976256   0.39951613       0.0025    4.2620243  0.010955233    83.691113    398.14264 
   67200    715.12766   0.34338839    17.002019   0.39951613       0.0025    3.7057553 0.0093234367    83.110954    396.92909 
   67300    716.10612   0.34338572    17.026437   0.39951613       0.0025    3.6999595  0.010223655    83.365976    395.71378 
   67400    717.13242   0.34284154     17.05343   0.39951613       0.0025    4.2516229  0.010362584    84.370671    394.49161 
   67500    718.12989   0.34368943    17.078932   0.39951613       0.0025    4.4525464  0.010640142      84.3573    393.26964 
   67600    719.17383   0.34445212    17.105604   0.39951613       0.0025    3.8253154  0.010536174    83.047368    392.05674 
   67700     720.1572   0.34417411    17.130722   0.39951613       0.0025    4.2644137  0.010953742    82.311236      390.849 
   67800    721.16637   0.34352855     17.15614   0.39951613       0.0025    4.1827284   0.00970191    83.284615     389.6345 
   67900    722.19643   0.34432903    17.181726   0.39951613       0.0025    4.5034001  0.010356601    82.261869    388.42709 
   68000     723.2134    0.3440407    17.207125   0.39951613       0.0025    4.9468058 0.0099570029    79.570314    387.23901 
   68100    724.24123   0.34422538    17.232447   0.39951613       0.0025    4.0691937  0.010588359     82.93139    386.02688 
   68200    725.24368   0.34355422    17.258348   0.39951613       0.0025    4.5034886  0.010191927    82.615064    384.81691 
   68300    726.28203   0.34214424    17.285033   0.39951613       0.0025    4.5000547  0.010692208    81.814328    383.61244 
   68400    727.32389   0.34311745    17.311395   0.39951613       0.0025    4.0950582  0.010693772    83.907745    382.39383 
   68500    728.31303   0.34497605    17.335865   0.39951613       0.0025     4.304324 0.0093407225    83.163473     381.1802 
   68600     729.3311   0.34513341    17.361331   0.39951613       0.0025    4.3016208  0.010520038    83.711007      379.963 
   68700     730.2994   0.34334598    17.385736   0.39951613       0.0025    4.3416658  0.010714482    83.852237    378.74496 
   68800    731.28455   0.34481401    17.410626   0.39951613       0.0025    4.0748768 0.0097102298    83.967713    377.52624 
   68900    732.29564   0.34440542    17.436186   0.39951613       0.0025     4.071188  0.010798783    84.030579     376.3072 
   69000    733.29598   0.34525864     17.46143   0.39951613       0.0025    4.2749651   0.00958073    83.087048    375.09432 
   69100    734.29361   0.34538493     17.48645   0.39951613       0.0025    4.4791528 0.0094196518    83.084563    373.88148 
   69200    735.30652   0.34411633    17.512193   0.39951613       0.0025    4.0152069  0.010419155    84.072401    372.66238 
   69300    736.30533   0.34496621    17.537223   0.39951613       0.0025    4.5562143  0.010184302    85.447514    371.43488 
   69400    737.29713   0.34492493     17.56145   0.39951613       0.0025    4.0890695  0.010700043     84.66898    370.21229 
   69500    738.34369   0.34404806    17.587884   0.39951613       0.0025      4.07638 0.0098808576    82.773243    369.00169 
   69600    739.37141    0.3444879    17.613797   0.39951613       0.0025    3.9969855   0.01044127    81.487907    367.79942 
   69700     740.3731   0.34500591    17.638878   0.39951613       0.0025    4.3883199 0.0095190823    82.022207     366.5936 
   69800    741.39663   0.34412029    17.664858   0.39951613       0.0025     3.952226 0.0094542117    82.550203    365.38437 
   69900    742.38621   0.34428817    17.689797   0.39951613       0.0025    4.3420638  0.010213966    82.990989    364.17236 
   70000    743.34722   0.34381771    17.714575   0.39951613       0.0025     4.538095  0.009320925    82.838177    362.96133 
   70100    744.34772   0.34491166    17.740501   0.39951613       0.0025    4.1217874  0.010884982    81.996984    361.75559 
   70200    745.34213   0.34442646    17.766673   0.39951613       0.0025    3.8467474 0.0092941133    81.006228    360.55614 
   70300    746.24957   0.34387492     17.79058   0.39951613       0.0025    3.9693002 0.0091772436    82.522479    359.34701 
   70400    747.13471   0.34416178     17.81425   0.39951613       0.0025    4.3013249 0.0083446641    81.301348    358.14553 
   70500    748.02953    0.3440041    17.838053   0.39951613       0.0025    4.3341829 0.0097257108    82.836034    356.93443 
   70600    749.05773   0.34329742    17.865377   0.39951613       0.0025    4.0737046  0.010075958     83.60275    355.71873 
   70700    750.06628   0.34431883    17.892108   0.39951613       0.0025    3.9322878  0.009918044    83.898027    354.50134 
   70800    751.08647   0.34377182    17.918268   0.39951613       0.0025    4.2688827  0.010254346    82.659121    353.29139 
   70900    752.13027   0.34296354    17.947207   0.39951613       0.0025    3.9439028 0.0097080271    82.182229    352.08432 
   71000    753.16362   0.34356835     17.97391   0.39951613       0.0025     4.064449  0.011484438    81.119452    350.88374 
   71100    754.17024   0.34554866    17.999399   0.39951613       0.0025    3.5528473 0.0098326029     84.42437    349.66345 
   71200    755.18439   0.34457904    18.025741   0.39951613       0.0025    4.1375643 0.0099919896    84.089307    348.44517 
   71300    756.19326   0.34401379    18.052632   0.39951613       0.0025    4.3850192 0.0097963342    84.248399    347.22607 
   71400    757.20486   0.34280427    18.078816   0.39951613       0.0025    4.3941195  0.010606953    82.391336    346.01777 
   71500    758.23528   0.34313506    18.105923   0.39951613       0.0025    3.8478993  0.010566029    82.876069    344.80663 
   71600    759.24845   0.34384386    18.131899   0.39951613       0.0025    4.0829142  0.010119487      82.7021    343.59651 
   71700     760.2343   0.34316275    18.156879   0.39951613       0.0025    3.8910483 0.0098921761    80.289358    342.40074 
   71800    761.28141   0.34374726    18.183706   0.39951613       0.0025    3.9911361  0.010678799    80.536905    341.20332 
   71900    762.30435   0.34472589    18.210023   0.39951613       0.0025    4.6067758  0.010792663     80.37441    340.00676 
   72000    763.32112   0.34478231    18.235872   0.39951613       0.0025    4.1397045 0.0099320026     81.51567    338.80329 
   72100    764.28637   0.34301468    18.260122   0.39951613       0.0025    4.4291439  0.010775951    83.190524     337.5902 
   72200    765.33458   0.34398955    18.287506   0.39951613       0.0025    4.1532044  0.010279907     83.03055    336.37803 
   72300    766.31194   0.34341401     18.31271   0.39951613       0.0025    4.4227536  0.010455739    82.345737    335.16973 
   72400    767.33454   0.34370809    18.338685   0.39951613       0.0025      4.09088   0.01061383    83.347141    333.95584 
   72500    768.34363   0.34342044    18.364639   0.39951613       0.0025     4.080421 0.0097738208    82.398863    332.74723 
   72600    769.37048   0.34301557    18.390864   0.39951613       0.0025    4.2530728   0.01041549    82.450226    331.53832 
   72700     770.4112    0.3429839    18.417516   0.39951613       0.0025    4.2634718  0.010369533     82.61111    330.32851 
   72800    771.41314   0.34362235    18.443758   0.39951613       0.0025     3.882416 0.0099269422    84.136774     329.1105 
   72900     772.4364   0.34480922     18.46973   0.39951613       0.0025    4.4378444  0.010900146    83.563059    327.89561 
   73000    773.47501    0.3431011    18.496724   0.39951613       0.0025    4.3424818  0.010378097    82.232709    326.68792 
   73100    774.50625   0.34350721    18.524016   0.39951613       0.0025     4.290689  0.010420025    82.979775    325.47618 
   73200    775.54186   0.34381981    18.551056   0.39951613       0.0025    3.7511235  0.010661371    82.927472    324.26474 
   73300    776.59138   0.34291154    18.577611   0.39951613       0.0025    4.4207524 0.0099833569    82.432223    323.05596 
   73400    777.60239   0.34361925    18.603153   0.39951613       0.0025         4.01 0.0093222949    83.601201    321.84101 
   73500     778.6242   0.34401218    18.628558   0.39951613       0.0025    4.6831844 0.0094428833    81.939076    320.63486 
   73600    779.62131   0.34430373    18.654991   0.39951613       0.0025    4.0221742  0.010491974    83.790542    319.41901 
   73700    780.64375   0.34479368    18.681611   0.39951613       0.0025    4.0867889 0.0095473644    83.282184    318.20581 
   73800    781.61119   0.34475179    18.706174   0.39951613       0.0025     3.955965  0.010749659    84.388971    316.98705 
   73900    782.59293    0.3432573    18.731428   0.39951613       0.0025     4.453845 0.0093920618    83.171982    315.77452 
   74000    783.58556   0.34360387    18.756815   0.39951613       0.0025    4.2127044  0.010793748     82.51717    314.56536 
   74100    784.61974   0.34429586    18.783888   0.39951613       0.0025    4.1734172 0.0094852044    82.920865    313.35413 
   74200    785.62362    0.3458159    18.810068   0.39951613       0.0025    4.2001666  0.011244026    83.655892    312.13923 
   74300    786.65425   0.34426247    18.837351   0.39951613       0.0025    3.9955496   0.01114795    83.771748    310.92381 
   74400    787.69082   0.34374405    18.863277   0.39951613       0.0025    4.3696731  0.010156393    82.975359    309.71239 
   74500    788.72252   0.34318216    18.890128   0.39951613       0.0025    3.9421693  0.010391973    82.068862    308.50555 
   74600    789.74358   0.34380448    18.916745   0.39951613       0.0025    3.9058701  0.010335426    83.716337    307.29051 
   74700     790.7579   0.34279772    18.943372   0.39951613       0.0025    4.1804956  0.011116565    84.388037     306.0723 
   74800    791.77176   0.34355576    18.969701   0.39951613       0.0025    4.3140124 0.0091606642    83.811839    304.85693 
   74900     792.7409   0.34484463    18.994037   0.39951613       0.0025    4.1052139 0.0090215647    83.296127    303.64409 
   75000    793.67488   0.34532973    19.018707   0.39951613       0.0025    4.0682884 0.0092891788    81.749826    302.43886 
   75100    794.66751   0.34326903    19.045058   0.39951613       0.0025    5.1912644 0.0092460971    81.563748     301.2345 
   75200     795.6547   0.34507631     19.07046   0.39951613       0.0025    4.1855502 0.0096794409    82.944182    300.02335 
   75300     796.6638   0.34346816     19.09684   0.39951613       0.0025    4.0857453  0.010444338    81.592086    298.81878 
   75400    797.70699   0.34329965    19.124249   0.39951613       0.0025    4.1834973 0.0097170278    82.735021    297.60862 
   75500    798.75424   0.34314902    19.151797   0.39951613       0.0025    4.3232373  0.010068814    82.548026    296.39936 
   75600    799.78737    0.3429451    19.178121   0.39951613       0.0025    4.0011399 0.0099174316    82.591329    295.18988 
   75700     800.7934   0.34460288    19.204019   0.39951613       0.0025    4.5733041  0.010045461    82.795432    293.97945 
   75800    801.80983   0.34412791    19.230005   0.39951613       0.0025    4.2472776  0.011144818    84.025142    292.76337 
   75900    802.81657     0.344361    19.256133   0.39951613       0.0025    4.3990673 0.0095725166    83.593936    291.54932 
   76000    803.81699   0.34349559    19.282485   0.39951613       0.0025    4.3812881 0.0095807107    80.644773    290.34913 
   76100    804.81747   0.34267991    19.310115   0.39951613       0.0025    4.7060221  0.010003902    83.998251    289.13328 
   76200    805.84045   0.34442977    19.336853   0.39951613       0.0025    4.5773096 0.0094194089    83.095328    287.92154 
   76300    806.85207   0.34388039     19.36378   0.39951613       0.0025    3.9653381  0.009907845    82.398393    286.71299 
   76400     807.8588   0.34447646    19.390459   0.39951613       0.0025    4.3631627   0.01097782    83.424127    285.49981 
   76500    808.90618   0.34412302    19.417976   0.39951613       0.0025    5.3693651 0.0089467879    82.367633    284.29139 
   76600    809.95106   0.34402674    19.445346   0.39951613       0.0025    3.8178511 0.0095114395     82.68208    283.08155 
   76700     810.9999   0.34330131    19.472461   0.39951613       0.0025    4.1668111  0.010339683    82.221828    281.87377 
   76800    812.04387   0.34417522    19.499124   0.39951613       0.0025    4.4421722 0.0099827094    83.175314    280.66175 
   76900    813.08154   0.34303593     19.52601   0.39951613       0.0025    3.9941387  0.010666224    83.710856    279.44745 
   77000     814.1207   0.34397421    19.553408   0.39951613       0.0025    4.1364784  0.010295881    80.958023    278.24533 
   77100    815.12937   0.34407871    19.580121   0.39951613       0.0025    4.0058641  0.010389909    82.214882    277.03751 
   77200    816.17418   0.34387439    19.607523   0.39951613       0.0025    3.9860501  0.010557472    82.035186    275.83047 
   77300    817.22034   0.34314771    19.634355   0.39951613       0.0025    4.1967824  0.010526757    81.641192    274.62511 
   77400     818.2312   0.34321254    19.661089   0.39951613       0.0025    4.2564914   0.01089358    81.712829     273.4194 
   77500    819.22602   0.34546005    19.687608   0.39951613       0.0025    4.3139554  0.010611733    83.142866    272.20752 
   77600    820.25602   0.34426198    19.714629   0.39951613       0.0025     4.094267  0.010952606    83.091114    270.99589 
   77700    821.28531   0.34469811    19.742022   0.39951613       0.0025    4.4560694  0.009502795    83.482991    269.78266 
   77800    822.27207   0.34328224    19.768445   0.39951613       0.0025    3.9623854  0.009289659    82.647557    268.57292 
   77900    823.26879   0.34248408    19.794828   0.39951613       0.0025    4.3062108  0.010231215    81.593356    267.36761 
   78000     824.2854   0.34349379    19.822062   0.39951613       0.0025    3.8826355  0.010399645    82.173454    266.15982 
   78100    825.29565   0.34427714    19.848787   0.39951613       0.0025    4.2476447  0.011094753    82.213447    264.95183 
   78200    826.33973   0.34282204    19.876768   0.39951613       0.0025     4.108377  0.009969469    81.306107     263.7476 
   78300    827.34245   0.34353246    19.903742   0.39951613       0.0025    4.1284598  0.010484028    84.145467    262.53181 
   78400    828.33379   0.34401487    19.930383   0.39951613       0.0025    4.3132728 0.0099790416    81.532498    261.32659 
   78500    829.33022   0.34380068    19.957143   0.39951613       0.0025    4.3109375  0.009758342    83.170514    260.11469 
   78600    830.34409   0.34465367    19.984737   0.39951613       0.0025    4.4350199  0.010383088    83.100251    258.90309 
   78700    831.35497   0.34483893    20.011536   0.39951613       0.0025    4.2385273  0.010218183    82.205536    257.69506 
   78800    832.37722   0.34383962    20.038302   0.39951613       0.0025    4.3235897  0.010343186    82.244883    256.48685 
   78900    833.38667   0.34429755    20.065228   0.39951613       0.0025    4.4246068  0.010682403    82.275149     255.2785 
   79000     834.4536   0.34373851    20.093317   0.39951613       0.0025    4.0685079  0.010246778    81.089184    254.07486 
   79100    835.46368   0.34450245    20.119551   0.39951613       0.0025    4.4471849  0.010159828    83.622735    252.86127 
   79200    836.49944   0.34316661    20.147448   0.39951613       0.0025    4.0214971  0.010269554    82.663699    251.65137 
   79300    837.52638   0.34317893    20.174907   0.39951613       0.0025    4.7041808 0.0089123646    82.409305    250.44245 
   79400    838.54624   0.34254782    20.201058   0.39951613       0.0025    3.7459439 0.0097429237    81.758941    249.23601 
   79500    839.52204   0.34416916    20.227061   0.39951613       0.0025    4.0452413  0.010359476    83.588205    248.02264 
   79600    840.52746   0.34357012    20.254303   0.39951613       0.0025    3.7207152  0.010015569    82.865836    246.81198 
   79700    841.54755   0.34531094    20.280999   0.39951613       0.0025    4.1009034  0.010708929     82.05552    245.60436 
   79800    842.57066   0.34394111    20.308547   0.39951613       0.0025    4.7800566 0.0099920924    83.321179    244.39203 
   79900    843.59143   0.34487436    20.335143   0.39951613       0.0025    4.1438615  0.010901507    83.467507    243.17921 
   80000    844.64293   0.34480291    20.362095   0.39951613       0.0025    4.0731395  0.010704097    83.047648    241.96793 
   80100    845.65613   0.34440869    20.388125   0.39951613       0.0025     4.148412  0.010182815     82.11131    240.76008 
   80200    846.67506   0.34440836    20.414849   0.39951613       0.0025     3.956621 0.0094937742    82.786183    239.54976 
   80300    847.69602   0.34373032    20.440958   0.39951613       0.0025    4.2082608  0.010130146    82.827544    238.33929 
   80400    848.69771   0.34339037    20.466336   0.39951613       0.0025    3.7226478 0.0094862732     83.56822    237.12623 
   80500    849.70542   0.34382694    20.491961   0.39951613       0.0025    3.8621865  0.010462498    82.845245    235.91573 
   80600    850.72353   0.34353932    20.518185   0.39951613       0.0025    4.8911381 0.0097089508     83.37398     234.7034 
   80700    851.76809   0.34448575    20.545589   0.39951613       0.0025    4.5555382 0.0090280473    83.538343    233.49054 
   80800     852.7469     0.344074    20.570906   0.39951613       0.0025     4.133296 0.0099841242     82.76542    232.28037 
   80900    853.71189   0.34396614    20.595865   0.39951613       0.0025    4.3366799 0.0099384895    83.851684    231.06652 
   81000    854.71703   0.34377909    20.621597   0.39951613       0.0025    4.7931328  0.010183384    82.553956    229.85711 
   81100    855.76159   0.34362118     20.64796   0.39951613       0.0025    4.3908324  0.010634525    81.502649    228.65134 
   81200    856.80043   0.34392082    20.674358   0.39951613       0.0025    4.2451536  0.010431255    82.385073    227.44247 
   81300    857.81769   0.34509976    20.700729   0.39951613       0.0025    4.2038658  0.010795823    82.502545     226.2332 
   81400    858.80242   0.34421858     20.72653   0.39951613       0.0025     3.975497 0.0095548908    82.413596    225.02422 
   81500     859.7906   0.34402159    20.753411   0.39951613       0.0025     4.145445  0.010496849    81.734262    223.81751 
   81600    860.77787   0.34423412    20.779874   0.39951613       0.0025    4.4485866  0.010090009    82.656319    222.60769 
   81700     861.7892   0.34406257    20.807809   0.39951613       0.0025    4.2205901 0.0099258554    83.468404    221.39523 
   81800    862.79166   0.34456842    20.835089   0.39951613       0.0025    4.3067907 0.0084690141    83.617767    220.18233 
   81900    863.80345   0.34410681    20.862748   0.39951613       0.0025    3.7666641  0.010834137    84.678382    218.96616 
   82000    864.83399   0.34435883    20.890696   0.39951613       0.0025    4.3221673 0.0099409891     83.81745    217.75274 
   82100    865.84083   0.34461275    20.918606   0.39951613       0.0025    4.5156468  0.010135857     83.38545    216.54071 
   82200    866.88747   0.34420538    20.946185   0.39951613       0.0025    4.1917928  0.010778287    84.198186    215.32621 
   82300    867.94463   0.34459636    20.973381   0.39951613       0.0025    4.5973184 0.0099450144    84.154398    214.11191 
   82400    868.91491   0.34418394    20.998434   0.39951613       0.0025    3.9746941 0.0096681981    85.171488    212.89464 
   82500    869.92079   0.34418439    21.024677   0.39951613       0.0025    4.0872612 0.0097568515    83.689644    211.68189 
   82600    870.90914   0.34432048    21.050329   0.39951613       0.0025    4.0345514  0.010764277    82.973701    210.47135 
   82700    871.92681   0.34561782    21.075983   0.39951613       0.0025     4.251003 0.0098914343    82.048457    209.26366 
   82800    872.94825   0.34532713    21.102704   0.39951613       0.0025    4.2163906  0.010795061    82.333533    208.05508 
   82900    873.98646   0.34549938    21.128958   0.39951613       0.0025    4.4040465 0.0099844661    80.930701    206.85082 
   83000    875.02341   0.34542191     21.15485   0.39951613       0.0025    4.1128694  0.010083098    80.883506    205.64663 
   83100    876.05399   0.34429104     21.18125   0.39951613       0.0025    4.2197515 0.0099647967    81.980188      204.439 
   83200    877.09412   0.34418096    21.207373   0.39951613       0.0025    4.0119039 0.0097896919    83.155163    203.22787 
   83300    878.08558   0.34378623    21.232439   0.39951613       0.0025    4.2029793 0.0091798878    83.237543    202.01651 
   83400    879.06018   0.34509429    21.256919   0.39951613       0.0025    4.1019844   0.01016768    82.849909     200.8063 
   83500    880.00715   0.34501039    21.280765   0.39951613       0.0025    4.5168738  0.009729244     82.13863    199.59816 
   83600    880.97317   0.34508756    21.305512   0.39951613       0.0025    4.2007498  0.010482561    80.761094    198.39407 
   83700    881.98436   0.34405382    21.330887   0.39951613       0.0025     4.000684  0.010602607    83.089731    197.18314 
   83800    883.01887   0.34418698    21.357821   0.39951613       0.0025    4.4035244   0.01014119     80.88803    195.97856 
   83900    884.02606   0.34313778    21.383261   0.39951613       0.0025    4.0328066 0.0097872873    83.262824    194.76715 
   84000    885.04228   0.34492116    21.408721   0.39951613       0.0025    3.8950682 0.0098408226    82.076346    193.55906 
   84100    886.06041   0.34461758    21.434535   0.39951613       0.0025    4.0933259  0.010593676    82.430651    192.34996 
   84200    887.07647   0.34493808    21.458956   0.39951613       0.0025    4.0436743  0.010439456    82.117772    191.14171 
   84300    888.11522   0.34472352    21.485038   0.39951613       0.0025    4.1876442  0.010072783     84.16453    189.92793 
   84400    889.14256   0.34465213    21.510208   0.39951613       0.0025    3.8654252 0.0090170118    83.457127    188.71607 
   84500    890.12708   0.34499709    21.534974   0.39951613       0.0025    4.8578219  0.010133064    83.714866    187.50357 
   84600    891.14576   0.34400094    21.560134   0.39951613       0.0025    3.9814736  0.010043946    82.976607    186.29304 
   84700     892.1886   0.34369895    21.586099   0.39951613       0.0025    4.2733424  0.010598588    83.895778    185.08014 
   84800    893.19251   0.34403672    21.611179   0.39951613       0.0025    3.9814769  0.010120366    82.752079    183.87024 
   84900    894.21197   0.34393964    21.636937   0.39951613       0.0025    3.6961852 0.0097028637    83.081864    182.65949 
   85000    895.18276   0.34339648    21.660816   0.39951613       0.0025    4.2754402  0.010053439    81.838896    181.45199 
   85100    896.21364   0.34311737    21.685893   0.39951613       0.0025    4.1762356  0.010499745    81.936643     180.2442 
   85200     897.2332   0.34377901    21.710279   0.39951613       0.0025    3.7031121  0.010523214    82.220619    179.03564 
   85300     898.2136   0.34368307    21.734367   0.39951613       0.0025    4.0426437  0.010352965    82.107259    177.82736 
   85400    899.25586   0.34274444    21.759671   0.39951613       0.0025    5.0119072 0.0095353224    81.456841    176.62071 
   85500    900.28667   0.34411339    21.784857   0.39951613       0.0025    4.3260036 0.0099008381    83.789923    175.40822 
   85600    901.29745   0.34402877    21.810562   0.39951613       0.0025    4.2425677  0.011354144    83.695455      174.196 
   85700    902.28984   0.34383266    21.834972   0.39951613       0.0025    4.1610085  0.010066632    83.092168    172.98527 
   85800     903.2878   0.34488207    21.859396   0.39951613       0.0025    4.2209028   0.01028898    83.285789     171.7741 
   85900    904.29655   0.34482788      21.8835   0.39951613       0.0025    4.0101474  0.010730206    83.918875    170.56146 
   86000    905.32848   0.34324526    21.908549   0.39951613       0.0025    5.3429243 0.0092247816    81.344267    169.35501 
   86100    906.35355   0.34366103    21.933019   0.39951613       0.0025    3.9820518  0.010899425    82.980793    168.14459 
   86200    907.32883        0.344    21.956602   0.39951613       0.0025    4.7835452 0.0096478977    81.604405    166.93744 
   86300    908.34759   0.34289391    21.982422   0.39951613       0.0025    3.8464752  0.010553175    82.496687    165.72814 
   86400    909.37828    0.3434929     22.00777   0.39951613       0.0025    4.0405309  0.010352684    83.453291    164.51665 
   86500    910.42061   0.34459562    22.032984   0.39951613       0.0025    4.0084717 0.0096636045    83.836633    163.30433 
   86600    911.44183   0.34418697    22.058651   0.39951613       0.0025    4.5955339  0.010758425    83.161609    162.09356 
   86700    912.44899    0.3444038     22.08386   0.39951613       0.0025    4.5712704  0.010720848    82.777621    160.88366 
   86800    913.46808   0.34397471    22.109198   0.39951613       0.0025    4.9339119 0.0092545578    78.899134    159.68279 
   86900     914.4401    0.3423064    22.134472   0.39951613       0.0025    4.4787068  0.010074421    80.964711     158.4769 
   87000    915.44443   0.34447847    22.159559   0.39951613       0.0025    4.3650707  0.010111728     80.69006    157.27157 
   87100    916.42821   0.34410893    22.183997   0.39951613       0.0025    3.9562191  0.010068705    84.069284    156.05879 
   87200    917.47265   0.34429927    22.210346   0.39951613       0.0025    3.9468403  0.010345915    84.126868    154.84594 
   87300    918.48741   0.34411903    22.235642   0.39951613       0.0025    4.3483099  0.010142285    83.445355    153.63455 
   87400    919.51731   0.34281566    22.260151   0.39951613       0.0025    4.8128773 0.0096955142     83.48005    152.42313 
   87500    920.54749   0.34396557    22.285082   0.39951613       0.0025    4.3618009  0.010298758    84.155968    151.21036 
   87600    921.56064   0.34488399    22.309371   0.39951613       0.0025    4.7888986 0.0094504208    83.039443     149.9999 
   87700    922.57874   0.34463279     22.33432   0.39951613       0.0025    4.1750927  0.010030635     84.59084    148.78637 
   87800    923.58185   0.34419706    22.358414   0.39951613       0.0025    4.6710687 0.0093187741    83.537029    147.57498 
   87900    924.57034   0.34353913    22.382266   0.39951613       0.0025     3.753506 0.0096349266     82.05316     146.3666 
   88000    925.55341   0.34388973    22.406207   0.39951613       0.0025    3.9386006 0.0091385459    81.934098    145.15843 
   88100    926.53925    0.3434308    22.430466   0.39951613       0.0025    4.4634593  0.009371249    81.687812    143.95074 
   88200    927.50121   0.34475569    22.454195   0.39951613       0.0025    3.9474761  0.010895013    82.494627    142.74141 
   88300    928.53122   0.34442611    22.479898   0.39951613       0.0025    4.3401763  0.010234011    83.859061    141.52946 
   88400    929.53824   0.34509572    22.503821   0.39951613       0.0025    4.0005494  0.010691552    83.812677    140.31764 
   88500    930.49704   0.34442342    22.527527   0.39951613       0.0025    4.5557983 0.0086091648    82.863085    139.10764 
   88600    931.52218   0.34399527    22.552864   0.39951613       0.0025    3.9843467  0.010020466    82.475177    137.89837 
   88700    932.55186   0.34431729    22.579043   0.39951613       0.0025    4.0238928  0.010723677     83.43757    136.68732 
   88800    933.55876   0.34284694    22.603717   0.39951613       0.0025    4.2036745  0.010140021    83.044671    135.47701 
   88900    934.54708   0.34451794    22.627278   0.39951613       0.0025    4.3956111   0.01010928    84.079682    134.26486 
   89000    935.55103   0.34352817    22.652164   0.39951613       0.0025    4.1383584  0.010188104    81.313516    133.05777 
   89100    936.56087   0.34464658    22.676523   0.39951613       0.0025    4.0244687 0.0097841619    82.668326    131.84816 
   89200     937.5418   0.34392774    22.698948   0.39951613       0.0025    4.2840515 0.0090438136    81.097745    130.64138 
   89300    938.48568   0.34417474    22.721308   0.39951613       0.0025    3.9487331  0.010383655    74.857355    129.44686 
   89400    939.51031   0.34535397    22.745215   0.39951613       0.0025     4.456282  0.009520752    75.080947    128.25156 
   89500    940.46514   0.34368127    22.767002   0.39951613       0.0025     4.118153  0.010273796    82.131263    127.04253 
   89600    941.46896   0.34325055    22.791381   0.39951613       0.0025    4.3977688 0.0096738935    82.843527    125.83228 
   89700    942.44532   0.34572083     22.81461   0.39951613       0.0025    4.0382622  0.010084893    82.696426    124.62227 
   89800    943.46231   0.34673703    22.839548   0.39951613       0.0025    4.6929881  0.010183025    82.251786    123.41301 
   89900     944.4361   0.34363359    22.863214   0.39951613       0.0025     4.323505  0.011000196    80.956523    122.20592 
   90000    945.45432   0.34475064    22.887933   0.39951613       0.0025    4.3963629 0.0099729997    81.193351    120.99837 
   90100    946.49577   0.34489099    22.913511   0.39951613       0.0025    4.3402765  0.010288981    80.304069    119.79226 
   90200    947.51393   0.34440173     22.93866   0.39951613       0.0025    4.2394034 0.0099130044    82.524995    118.58243 
   90300    948.51212    0.3442233    22.963314   0.39951613       0.0025    4.2352666 0.0094689237    82.349116    117.37287 
   90400    949.52347   0.34538305    22.987777   0.39951613       0.0025    4.1609574 0.0095854931    83.328479    116.16178 
   90500    950.50979   0.34436616    23.012207   0.39951613       0.0025    4.3808299  0.010405082    83.192108    114.95092 
   90600    951.52662   0.34433304    23.037583   0.39951613       0.0025    4.5292538  0.010726256    83.193643    113.74009 
   90700    952.56641   0.34464387    23.062753   0.39951613       0.0025    4.5834595 0.0098582088    81.957537    112.53112 
   90800    953.58187   0.34360951    23.087763   0.39951613       0.0025    4.4518799  0.010177196    83.084497    111.32046 
   90900    954.61761   0.34365444    23.112775   0.39951613       0.0025    4.1085146  0.011149036    82.912488    110.11007 
   91000    955.61852   0.34435222     23.13693   0.39951613       0.0025    4.1348647 0.0093765464    81.774371    108.90134 
   91100    956.64072   0.34358639     23.16214   0.39951613       0.0025    4.2102778  0.010066556    83.698963    107.68983 
   91200     957.6744   0.34362069     23.18635   0.39951613       0.0025    4.0808353   0.01109321    83.802696    106.47822 
   91300    958.71066   0.34342893     23.21158   0.39951613       0.0025    4.0530928 0.0096112763     82.55082    105.26837 
   91400    959.71549   0.34366042    23.237132   0.39951613       0.0025    4.2839475 0.0095219323    83.145701    104.05771 
   91500    960.70243   0.34351607    23.261838   0.39951613       0.0025    4.4706464 0.0094506747    83.893396    102.84606 
   91600    961.72781   0.34276326    23.287698   0.39951613       0.0025    4.4927904  0.010482049    84.132369    101.63415 
   91700     962.7368   0.34368675    23.313066   0.39951613       0.0025    3.9957986  0.010389898    82.573313    100.42432 
   91800    963.75904   0.34444831    23.338665   0.39951613       0.0025    4.3407962  0.010059879    83.407355     99.21341 
   91900    964.77361    0.3442887     23.36428   0.39951613       0.0025    4.2624205 0.0094400164    82.383666    98.003835 
   92000       965.79   0.34400786    23.389568   0.39951613       0.0025    4.0534873  0.010574794    81.980925     96.79477 
   92100    966.79833   0.34390236    23.415314   0.39951613       0.0025    4.1628159 0.0093734671    82.628979     95.58486 
   92200    967.79985   0.34412633    23.440898   0.39951613       0.0025    4.0014941  0.011288991    83.157191      94.3743 
   92300    968.82116   0.34440589    23.467162   0.39951613       0.0025    4.4621398 0.0099685999    83.473421    93.163377 
   92400    969.83485   0.34509025    23.492839   0.39951613       0.0025    4.3227034   0.01055978    83.361337    91.952614 
   92500    970.84572   0.34353258    23.518081   0.39951613       0.0025    4.2202727  0.010078149      83.9622     90.74118 
   92600    971.89415   0.34320224     23.54414   0.39951613       0.0025    4.3930181  0.010369611    83.379616    89.530454 
   92700    972.90326   0.34360551    23.569145   0.39951613       0.0025    4.3375005 0.0097240479    82.340774    88.320945 
   92800    973.89491    0.3434243     23.59318   0.39951613       0.0025    3.8337608  0.010159112    82.457228    87.111292 
   92900    974.89825   0.34349863    23.618387   0.39951613       0.0025    3.9049993   0.01017317    82.808264     85.90124 
   93000     975.9041   0.34408615      23.6434   0.39951613       0.0025    4.3603466 0.0087841786    82.439012      84.6916 
   93100    976.89944   0.34410105    23.667164   0.39951613       0.0025    4.3889546 0.0094776261    84.046188    83.480233 
   93200    977.86712    0.3441713    23.691093   0.39951613       0.0025    3.8584735  0.010189491    83.370351    82.269616 
   93300    978.87659   0.34392761     23.71585   0.39951613       0.0025    4.0528749  0.010366067    84.305313    81.058068 
   93400    979.85711   0.34332861     23.73856   0.39951613       0.0025       4.3485 0.0090348174    83.670595    79.847211 
   93500    980.89567   0.34370754    23.762531   0.39951613       0.0025    4.0467685  0.010663128    83.308552    78.636748 
   93600    981.92726   0.34337195    23.786759   0.39951613       0.0025    4.4688181  0.010611649    82.984306    77.426627 
   93700    982.93868   0.34278225    23.810235   0.39951613       0.0025    4.3026609  0.010319454    83.369108    76.216143 
   93800    983.91155   0.34405198    23.833635   0.39951613       0.0025     3.964565 0.0098400228    83.388236    75.005664 
   93900    984.91807   0.34431038    23.857495   0.39951613       0.0025     4.064329  0.010087614    82.807234    73.795756 
   94000    985.92248   0.34327231    23.882306   0.39951613       0.0025    4.0212655 0.0098152113    81.477206    72.587111 
   94100    986.91223   0.34489559    23.905369   0.39951613       0.0025    4.2102479 0.0089959506    82.074659    71.377866 
   94200    987.91592   0.34360367    23.928211   0.39951613       0.0025    4.2585366  0.010416069    83.750204    70.167101 
   94300    988.93233   0.34333013    23.952266   0.39951613       0.0025     4.264303  0.010585459    84.165509    68.956015 
   94400    989.96114   0.34467094    23.977547   0.39951613       0.0025    4.4720255  0.010143272    82.812172     67.74613 
   94500    990.99278   0.34443491    24.001175   0.39951613       0.0025    4.4342225  0.010483106    81.155788    66.537684 
   94600    991.98895    0.3430151    24.024186   0.39951613       0.0025    4.0361167  0.010247221    78.239183     65.33181 
   94700    993.01218   0.34408243    24.048473   0.39951613       0.0025     4.020326  0.010647936     79.84331    64.124346 
   94800    994.05632   0.34407236    24.072948   0.39951613       0.0025     4.378301  0.010389358    80.420179    62.916294 
   94900    995.05513    0.3436885    24.096177   0.39951613       0.0025    3.9788275  0.010629815      80.1449    61.708397 
   95000    996.11275   0.34322914    24.120819   0.39951613       0.0025    4.2788801  0.010251115    80.191436    60.500379 
   95100    997.11761   0.34348259    24.144434   0.39951613       0.0025    4.0874201 0.0097758985    82.510563    59.290472 
   95200    998.11226   0.34410099    24.168023   0.39951613       0.0025    4.1400547   0.01040303    84.023812    58.079461 
   95300    999.12514   0.34397876    24.192071   0.39951613       0.0025    3.9966444 0.0098887198    83.715485    56.868709 
   95400    1000.1707   0.34318128    24.216781   0.39951613       0.0025    4.3420181  0.010810927    83.603034    55.658069 
   95500    1001.2141   0.34321875    24.241215   0.39951613       0.0025    4.9249117 0.0099484909    80.157934    54.449882 
   95600    1002.2376   0.34350983    24.265759   0.39951613       0.0025    4.2503502  0.010170898    80.613758    53.241287 
   95700    1003.2538   0.34367222    24.290268   0.39951613       0.0025    4.0179151  0.010180567    83.260213    52.030855 
   95800    1004.2903   0.34382042    24.314794   0.39951613       0.0025     4.768777 0.0090015789     83.04454    50.820579 
   95900    1005.2936    0.3442171    24.338753   0.39951613       0.0025    3.9623092  0.009627503    80.060776    49.612234 
   96000    1006.3075   0.34389207    24.363319   0.39951613       0.0025    3.7132105   0.01029991    81.492831     48.40289 
   96100    1007.3139   0.34390924     24.38842   0.39951613       0.0025    4.3068962  0.010837382    82.458233    47.192925 
   96200    1008.3403   0.34537884    24.414017   0.39951613       0.0025    4.1251496  0.010621218    82.693018     45.98282 
   96300    1009.3806   0.34477856     24.44056   0.39951613       0.0025    4.4435606 0.0099409665    82.303854    44.772935 
   96400    1010.3399   0.34484675    24.463695   0.39951613       0.0025    4.3482815  0.008457494    82.345058    43.563017 
   96500    1011.3445   0.34464436    24.487277   0.39951613       0.0025    4.1599487 0.0098166745    82.538003    42.352987 
   96600    1012.3601   0.34452976    24.512274   0.39951613       0.0025    3.8047286  0.010844362    83.124559    41.142653 
   96700    1013.3851   0.34531144    24.537846   0.39951613       0.0025     3.809644 0.0098361543    83.892674    39.931958 
   96800    1014.3824    0.3442544    24.563155   0.39951613       0.0025    4.2770847  0.010688503    84.505352    38.721016 
   96900    1015.4324   0.34624053    24.589755   0.39951613       0.0025    4.1126241   0.01068836     83.83298    37.510434 
   97000    1016.4731   0.34568086    24.615495   0.39951613       0.0025     4.036099  0.010775449    83.396376    36.300082 
   97100    1017.5105   0.34452203    24.640942   0.39951613       0.0025    4.5482759  0.010167969    83.497898     35.08971 
   97200    1018.5408    0.3444223    24.666289   0.39951613       0.0025    4.1809279  0.010583599    84.009036    33.879154 
   97300    1019.5272   0.34439155    24.691482   0.39951613       0.0025    4.4075874  0.010086395    83.988731    32.668648 
   97400    1020.5366   0.34469469    24.718106   0.39951613       0.0025    4.2587457  0.010022666    83.326658    31.458435 
   97500    1021.5344   0.34415203    24.743677   0.39951613       0.0025    4.4587517  0.010606158    82.059565    30.248718 
   97600    1022.5707   0.34403083     24.77001   0.39951613       0.0025    4.4743986 0.0093164335    85.172197    29.037888 
   97700    1023.5744   0.34526873    24.795479   0.39951613       0.0025    3.7715662  0.010423606    85.114573    27.827151 
   97800    1024.5608   0.34417523    24.821002   0.39951613       0.0025    3.9388114 0.0098474456     84.26204    26.616755 
   97900     1025.588   0.34508384     24.84703   0.39951613       0.0025    4.1829719  0.011082514    84.104584    25.406455 
   98000    1026.6398   0.34457958    24.873872   0.39951613       0.0025    4.2561447 0.0097794118    84.165222    24.196182 
   98100    1027.6171   0.34420034    24.898989   0.39951613       0.0025    3.8477872 0.0093968999    83.325284    22.986185 
   98200    1028.6288   0.34496044    24.924498   0.39951613       0.0025    4.0958809  0.010977029    84.910182    21.775797 
   98300    1029.6599   0.34421802    24.950897   0.39951613       0.0025    4.2947413  0.010360403    84.066049    20.565681 
   98400    1030.6975   0.34526752    24.977139   0.39951613       0.0025    4.1620716 0.0094128273    83.948672    19.355634 
   98500    1031.7292   0.34527611     25.00339   0.39951613       0.0025    4.3971589   0.01114416    84.015817     18.14561 
   98600    1032.7592   0.34508078    25.029734   0.39951613       0.0025    3.8609469  0.010473189    83.115994    16.935809 
   98700    1033.7815   0.34489573    25.055364   0.39951613       0.0025    3.9685164  0.010593474    83.426566    15.725963 
   98800    1034.8019   0.34440332     25.08121   0.39951613       0.0025    4.2683697 0.0098295391    83.883396    14.516061 
   98900    1035.8275   0.34421586    25.107885   0.39951613       0.0025     4.543428  0.010657733    83.733233    13.306218 
   99000    1036.8086    0.3448446    25.132131   0.39951613       0.0025    4.2518778 0.0098537518    81.919664    12.096673 
   99100    1037.7905   0.34338088    25.157371   0.39951613       0.0025    4.0732324  0.010061927    83.177095    10.886938 
   99200    1038.8364   0.34342168    25.183633   0.39951613       0.0025    4.2139452  0.010882542    83.801374    9.6771466 
   99300    1039.8507   0.34501737    25.209678   0.39951613       0.0025      4.48296  0.010150964    83.437205    8.4674248 
   99400    1040.8681   0.34451058    25.235022   0.39951613       0.0025    4.2582567  0.010156523    83.646383    7.2577074 
   99500    1041.8771    0.3439627    25.261056   0.39951613       0.0025    4.0424021  0.010089647    84.414192     6.047964 
   99600    1042.8715   0.34457975    25.285954   0.39951613       0.0025    4.1547319 0.0098916662    82.336103     4.838391 
   99700    1043.8606    0.3442315     25.31067   0.39951613       0.0025     4.102547  0.010320427    83.173021    3.6287713 
   99800    1044.8895   0.34540609    25.336743   0.39951613       0.0025     4.297569  0.010279603    81.950475    2.4192023 
   99900    1045.9126   0.34412131    25.362603   0.39951613       0.0025    4.2084611  0.010393857    83.533202    1.2095886 
  100000    1046.8897   0.34444781    25.387814   0.39951613       0.0025    4.5308215 0.0099389433    81.360472            0 
Loop time of 1209.61 on 4 procs for 100000 steps with 191540 atoms

Performance: 70991.973 tau/day, 82.671 timesteps/s
220.9% CPU use with 1 MPI tasks x 4 OpenMP threads

MPI task timing breakdown:
Section |  min time  |  avg time  |  max time  |%varavg| %total
---------------------------------------------------------------
Pair    | 393.24     | 393.24     | 393.24     |   0.0 | 32.51
Neigh   | 18.04      | 18.04      | 18.04      |   0.0 |  1.49
Comm    | 131.62     | 131.62     | 131.62     |   0.0 | 10.88
Output  | 3.518      | 3.518      | 3.518      |   0.0 |  0.29
Modify  | 588.83     | 588.83     | 588.83     |   0.0 | 48.68
Other   |            | 74.36      |            |       |  6.15

Nlocal:    191540 ave 191540 max 191540 min
Histogram: 1 0 0 0 0 0 0 0 0 0
Nghost:    66926 ave 66926 max 66926 min
Histogram: 1 0 0 0 0 0 0 0 0 0
Neighs:    0 ave 0 max 0 min
Histogram: 1 0 0 0 0 0 0 0 0 0

Total # of neighbors = 0
Ave neighs/atom = 0
Neighbor list builds = 28252
Dangerous builds = 0

Please see the log.cite file for references relevant to this simulation

Total wall time: 0:21:03
