#package gpu 1
#suffix gpu
#variable rho equal 0.05

units lj
atom_style atomic

lattice fcc 0.975
Lattice spacing in x,y,z = 1.60085 1.60085 1.60085
region box block 0 60 0 30 0 30
create_box 2 box
Created orthogonal box = (0 0 0) to (96.0513 48.0256 48.0256)
  1 by 1 by 1 MPI processor grid
create_atoms 1 box
Created 216000 atoms
  Time spent = 0.0643899 secs
mass 1 4.0
mass 2 0.5


pair_style lj/cut 2.5
pair_coeff 1 1 1.0 1.0 2.5
pair_coeff 2 2 0.5 0.88 2.5
pair_coeff 1 2 0.2 1.0 2.5
#pair_coeff 1 2 1.5 0.8 2.5
pair_modify mix geometric
neigh_modify every 1 delay 0 check yes

variable R equal 12
region cylinder1 cylinder x $(0.5*ly) $(0.5*lz) $R EDGE EDGE units box
region cylinder1 cylinder x 24.012813670346833561 $(0.5*lz) $R EDGE EDGE units box
region cylinder1 cylinder x 24.012813670346833561 24.012813670346833561 $R EDGE EDGE units box
region cylinder1 cylinder x 24.012813670346833561 24.012813670346833561 12 EDGE EDGE units box

group cylinder1 region cylinder1
41820 atoms in group cylinder1
variable V equal PI*v_R*v_R*lx
# variable rho equal 0.1
variable natoms equal $V*${rho}
variable natoms equal 43452.5639148185*${rho}
variable natoms equal 43452.5639148185*0.05
variable natoms_in_cylinder equal count(cylinder1)
variable delete_fraction equal (${natoms_in_cylinder}-${natoms})/${natoms_in_cylinder}
variable delete_fraction equal (41820-${natoms})/${natoms_in_cylinder}
variable delete_fraction equal (41820-2172.62819574093)/${natoms_in_cylinder}
variable delete_fraction equal (41820-2172.62819574093)/41820
set group cylinder1 type 2
  41820 settings made for type
delete_atoms porosity cylinder1 ${delete_fraction} 12345
delete_atoms porosity cylinder1 0.94804810627114 12345
Deleted 39733 atoms, new total = 176267
#delete_atoms region cylinder1

region cylinder2 cylinder x $(0.5*ly) $(0.5*lz) $(v_R+6) EDGE EDGE units box
region cylinder2 cylinder x 24.012813670346833561 $(0.5*lz) $(v_R+6) EDGE EDGE units box
region cylinder2 cylinder x 24.012813670346833561 24.012813670346833561 $(v_R+6) EDGE EDGE units box
region cylinder2 cylinder x 24.012813670346833561 24.012813670346833561 18 EDGE EDGE units box
region cylinder3 cylinder x $(0.5*ly) $(0.5*lz) $(v_R+9) EDGE EDGE units box
region cylinder3 cylinder x 24.012813670346833561 $(0.5*lz) $(v_R+9) EDGE EDGE units box
region cylinder3 cylinder x 24.012813670346833561 24.012813670346833561 $(v_R+9) EDGE EDGE units box
region cylinder3 cylinder x 24.012813670346833561 24.012813670346833561 21 EDGE EDGE units box
group cylinder2 region cylinder2
56087 atoms in group cylinder2
group cylinder3 region cylinder3
89927 atoms in group cylinder3

group nve region cylinder3
89927 atoms in group nve
group langevin subtract cylinder3 cylinder2
33840 atoms in group langevin
group frozen subtract all cylinder3
86340 atoms in group frozen

region force cylinder x $(0.5*ly) $(0.5*lz) $(v_R-1) EDGE EDGE units box
region force cylinder x 24.012813670346833561 $(0.5*lz) $(v_R-1) EDGE EDGE units box
region force cylinder x 24.012813670346833561 24.012813670346833561 $(v_R-1) EDGE EDGE units box
region force cylinder x 24.012813670346833561 24.012813670346833561 11 EDGE EDGE units box
group gas type 2
2087 atoms in group gas

fix nve nve nve
fix langevin langevin langevin 0.50 0.50 1.0 12345 zero yes

variable gascount equal count(gas)

variable dP equal 0.001
variable force equal v_dP/v_rho

velocity all create 0.1 87287
velocity frozen set 0 0 0

compute chunk all chunk/atom bin/cylinder x lower $(lx) $(0.5*ly) $(0.5*lz) 0 $(v_R+3) 80 units box
compute chunk all chunk/atom bin/cylinder x lower 96.051254681387334244 $(0.5*ly) $(0.5*lz) 0 $(v_R+3) 80 units box
compute chunk all chunk/atom bin/cylinder x lower 96.051254681387334244 24.012813670346833561 $(0.5*lz) 0 $(v_R+3) 80 units box
compute chunk all chunk/atom bin/cylinder x lower 96.051254681387334244 24.012813670346833561 24.012813670346833561 0 $(v_R+3) 80 units box
compute chunk all chunk/atom bin/cylinder x lower 96.051254681387334244 24.012813670346833561 24.012813670346833561 0 15 80 units box

compute displacement all displace/atom
compute mean_displacement nve reduce ave c_displacement[4]

compute vmax all reduce max vx
variable volume equal count(gas)/v_V

thermo_style custom step time temp c_mean_displacement v_volume v_force c_vmax dt spcpu cpuremain
thermo 100

compute keAtom all ke/atom
dump dump all custom 1000 trajectory.bin id type x y z c_keAtom

fix flow gas addforce v_force 0.0 0.0
run 5000
No /omp style for force computation currently active
Per MPI rank memory allocation (min/avg/max) = 85.82 | 85.82 | 85.82 Mbytes
Step Time Temp c_mean_displacement v_volume v_force c_vmax Dt S/CPU CPULeft 
       0            0  0.051068338            0  0.048029387         0.02   0.77503106        0.005            0            0 
     100          0.5  0.065548836  0.060057535  0.048029387         0.02    1.6174157        0.005    129.89189    37.723726 
     200            1  0.095261204  0.099063723  0.048029387         0.02     1.802336        0.005    141.41391    35.448383 
     300          1.5   0.11063093   0.14235243  0.048029387         0.02    2.2137936        0.005    141.21204    34.234344 
     400            2   0.12287001   0.17969264  0.048029387         0.02    2.2000579        0.005     138.9053    33.408487 
     500          2.5   0.13008926   0.21313953  0.048029387         0.02    2.0631942        0.005    139.35143    32.604263 
     600            3   0.13496148   0.23379495  0.048029387         0.02    2.3930125        0.005    138.95896    31.843774 
     700          3.5   0.14118226   0.23760917  0.048029387         0.02    2.2186416        0.005    141.19825    31.024844 
     800            4   0.14888009   0.22860912  0.048029387         0.02    2.1827191        0.005    137.22352    30.341299 
     900          4.5   0.15553445   0.21096164  0.048029387         0.02    2.2659608        0.005    137.42305    29.642886 
    1000            5   0.15991594   0.18916931  0.048029387         0.02     2.127396        0.005    136.61222    28.955895 
    1100          5.5    0.1639849   0.17093305  0.048029387         0.02    2.3790239        0.005    139.26547    28.211277 
    1200            6   0.16600814   0.16224391  0.048029387         0.02     2.437594        0.005    139.10238    27.473753 
    1300          6.5   0.16849432   0.16266764  0.048029387         0.02    2.5012516        0.005    134.54244    26.808441 
    1400            7   0.17183923    0.1678369  0.048029387         0.02    3.2905774        0.005    137.76307    26.087313 
    1500          7.5   0.17503138   0.17423054  0.048029387         0.02    2.5708885        0.005    133.40712    25.420852 
    1600            8   0.17929191   0.17973668  0.048029387         0.02    3.0455724        0.005    135.36235    24.720994 
    1700          8.5   0.18416767    0.1853186  0.048029387         0.02    3.0765993        0.005    139.09518    23.978074 
    1800            9   0.18860228   0.19265296  0.048029387         0.02    2.2469957        0.005    138.31262    23.245051 
    1900          9.5   0.19368109   0.20220404  0.048029387         0.02    2.4376131        0.005    136.93245    22.524972 
    2000           10   0.19841548   0.21465987  0.048029387         0.02    2.7368343        0.005    135.80902    21.812934 
    2100         10.5   0.20019371   0.22864958  0.048029387         0.02    2.5925489        0.005    136.91243    21.090388 
    2200           11   0.20183331    0.2417236  0.048029387         0.02    2.7409998        0.005    135.89597    20.374081 
    2300         11.5   0.20411016   0.25133399  0.048029387         0.02     2.918493        0.005    133.32371    19.672741 
    2400           12    0.2055681   0.25681838  0.048029387         0.02     2.466305        0.005    135.45144    18.954577 
    2500         12.5   0.20737525   0.25836136  0.048029387         0.02    2.4509495        0.005    137.17819    18.225513 
    2600           13   0.20887418   0.25654134  0.048029387         0.02    3.2359963        0.005     135.6276    17.504146 
    2700         13.5   0.21061371   0.25336208  0.048029387         0.02    3.3371899        0.005    135.50776    16.782154 
    2800           14   0.21129849   0.25066297  0.048029387         0.02    2.6287318        0.005    135.88082     16.05743 
    2900         14.5   0.21254725   0.24866541  0.048029387         0.02    2.7259316        0.005    136.47762    15.329602 
    3000           15   0.21269614   0.24940798  0.048029387         0.02    3.0703104        0.005    130.64259    14.623265 
    3100         15.5   0.21504992     0.251894  0.048029387         0.02    3.0718247        0.005    132.68268    13.905901 
    3200           16   0.21730748   0.25633976  0.048029387         0.02     2.359791        0.005    136.68408    13.173856 
    3300         16.5   0.21917084   0.26217475  0.048029387         0.02    2.5435975        0.005    137.38474    12.439916 
    3400           17   0.22065941   0.26863253  0.048029387         0.02    3.1778442        0.005    136.16557    11.709398 
    3500         17.5   0.22236074   0.27594716  0.048029387         0.02    3.1716303        0.005     134.5008    10.982555 
    3600           18   0.22443215   0.28320294  0.048029387         0.02    3.1844759        0.005    136.47403    10.250606 
    3700         18.5   0.22610814   0.29017364  0.048029387         0.02    3.0894004        0.005    133.05569    9.5252289 
    3800           19   0.22715022   0.29688717  0.048029387         0.02    3.0647028        0.005    133.40076     8.797859 
    3900         19.5   0.22814446   0.30421901  0.048029387         0.02    3.3364662        0.005    135.56566    8.0659723 
    4000           20   0.22988768   0.31134712  0.048029387         0.02     2.878494        0.005    132.43559    7.3381554 
    4100         20.5   0.23071022   0.31889663  0.048029387         0.02    3.1585574        0.005    131.88001    6.6097069 
    4200           21   0.23142543   0.32565627  0.048029387         0.02    3.1161973        0.005    133.25657    5.8783464 
    4300         21.5   0.23252584   0.33133102  0.048029387         0.02    3.2936897        0.005    135.78321    5.1438258 
    4400           22   0.23308337   0.33577562  0.048029387         0.02    3.5180874        0.005    132.18633    4.4119492 
    4500         22.5   0.23418143   0.33891461  0.048029387         0.02    2.7071549        0.005    131.64891    3.6793212 
    4600           23   0.23521546   0.34120793  0.048029387         0.02    3.3072528        0.005    135.22523    2.9437737 
    4700         23.5     0.234787   0.34404025  0.048029387         0.02    3.1481142        0.005     133.6123    2.2086276 
    4800           24   0.23485294   0.34806817  0.048029387         0.02    3.2367744        0.005    134.19072    1.4727933 
    4900         24.5   0.23540902   0.35313961  0.048029387         0.02    3.5570172        0.005    133.16396   0.73669373 
    5000           25   0.23489961   0.35822882  0.048029387         0.02    3.3167663        0.005    129.59678            0 
Loop time of 36.8696 on 4 procs for 5000 steps with 176267 atoms

Performance: 58584.795 tau/day, 135.613 timesteps/s
247.2% CPU use with 1 MPI tasks x 4 OpenMP threads

MPI task timing breakdown:
Section |  min time  |  avg time  |  max time  |%varavg| %total
---------------------------------------------------------------
Pair    | 15.33      | 15.33      | 15.33      |   0.0 | 41.58
Neigh   | 0.22919    | 0.22919    | 0.22919    |   0.0 |  0.62
Comm    | 3.8392     | 3.8392     | 3.8392     |   0.0 | 10.41
Output  | 0.15988    | 0.15988    | 0.15988    |   0.0 |  0.43
Modify  | 14.073     | 14.073     | 14.073     |   0.0 | 38.17
Other   |            | 3.239      |            |       |  8.78

Nlocal:    176267 ave 176267 max 176267 min
Histogram: 1 0 0 0 0 0 0 0 0 0
Nghost:    66718 ave 66718 max 66718 min
Histogram: 1 0 0 0 0 0 0 0 0 0
Neighs:    0 ave 0 max 0 min
Histogram: 1 0 0 0 0 0 0 0 0 0

Total # of neighbors = 0
Ave neighs/atom = 0
Neighbor list builds = 510
Dangerous builds = 0

reset_timestep 0
fix vx all ave/chunk 10 10000 100000 chunk vx ave running file velocity.txt

fix dt all dt/reset 10 NULL NULL 0.05 units box

run 100000
No /omp style for force computation currently active
Per MPI rank memory allocation (min/avg/max) = 95.19 | 95.19 | 95.19 Mbytes
Step Time Temp c_mean_displacement v_volume v_force c_vmax Dt S/CPU CPULeft 
       0           25   0.23489961   0.35822882  0.048029387         0.02    3.3167663  0.013538863            0            0 
     100    26.308082   0.23736968   0.37452847  0.048029387         0.02    3.5523896  0.013550887    108.91583    917.22299 
     200    27.644975    0.2402384   0.39085066  0.048029387         0.02    3.5690357  0.013416385    109.42166    914.18657 
     300    28.974451   0.24167004   0.40990237  0.048029387         0.02     3.624903  0.013240042    107.63728    917.59996 
     400    30.288172    0.2430877   0.42890026  0.048029387         0.02    3.8158276  0.012558669    106.14855    922.08661 
     500     31.44768    0.2422638   0.44288763  0.048029387         0.02    4.2518845  0.011594621    110.97795    916.24356 
     600     32.58868   0.24237861   0.45505307  0.048029387         0.02    4.3530027  0.010851447    106.39371    918.47988 
     700    33.661878   0.24452103   0.46795619  0.048029387         0.02    4.5996946  0.010616439    108.49882    917.22178 
     800    34.739686   0.24517253   0.48263371  0.048029387         0.02    3.9653145  0.010635384    107.78789    916.80158 
     900    35.857508   0.24664609   0.49820791  0.048029387         0.02    3.8910065  0.011369862    111.52314     912.8471 
    1000    36.987197   0.24641682   0.51405332  0.048029387         0.02    3.9353064  0.011261583    105.99956    914.12998 
    1100    38.118143    0.2478051   0.53037705  0.048029387         0.02    3.9353821  0.011113841    109.12814    912.57638 
    1200    39.161359    0.2489272   0.54543246  0.048029387         0.02    5.8456613 0.0085103768    108.72543    911.40844 
    1300    39.990253    0.2496168   0.55690251  0.048029387         0.02    4.4017024 0.0098529455    109.72879    909.64015 
    1400    41.103279    0.2494626   0.57237578  0.048029387         0.02    3.9494578    0.0117136    110.76711    907.39263 
    1500    42.272304   0.24969859    0.5875454  0.048029387         0.02    4.0630948  0.011269631    108.21329    906.72351 
    1600    43.436908   0.25087734   0.60364509  0.048029387         0.02    3.9808002  0.011955924    110.31145    904.94151 
    1700    44.652005   0.24980404   0.62174868  0.048029387         0.02    3.4638738  0.012151067    109.40165    903.69845 
    1800    45.872429   0.25071514   0.63989363  0.048029387         0.02    4.0477133  0.011952631    107.93682     903.1687 
    1900    47.008773   0.25156829   0.65623495  0.048029387         0.02     3.528799  0.012325316    110.61016    901.44101 
    2000    48.183987   0.25181235   0.67433143  0.048029387         0.02    3.8439009   0.01104551    107.40712    901.11686 
    2100    49.379888   0.25215026   0.69276394  0.048029387         0.02    3.8759972   0.01193254      108.379    900.34565 
    2200     50.54883   0.25183254   0.70902233  0.048029387         0.02    4.1827618   0.01173392    109.27684    899.22366 
    2300    51.692406   0.25187338   0.72494725  0.048029387         0.02    4.1966974  0.011525323    110.71021    897.61638 
    2400    52.842833   0.25224995   0.74187702  0.048029387         0.02    4.2393861  0.011570554    109.81915    896.36581 
    2500    53.988063   0.25201714   0.75748317  0.048029387         0.02    4.3042903  0.011258537    109.05876    895.39004 
    2600    55.127448   0.25297872   0.77381591  0.048029387         0.02    4.3665218  0.011370553    108.28043    894.66572 
    2700    56.253705   0.25347444   0.79003346  0.048029387         0.02    4.4151863  0.010842483    109.07527    893.68411 
    2800    57.316163   0.25463863   0.80393958  0.048029387         0.02    4.8823822 0.0097994706     108.3951    892.90683 
    2900    58.231675   0.25364138   0.81772259  0.048029387         0.02    5.2898198 0.0093756607    108.64651    892.04806 
    3000    59.184707   0.25470094   0.83147555  0.048029387         0.02    5.3027729 0.0093524629    107.70256    891.44601 
    3100    60.114004   0.25409907    0.8445971  0.048029387         0.02    5.0467325 0.0096615978    106.75846    891.07952 
    3200    61.164051   0.25571219    0.8586969  0.048029387         0.02    4.5226216  0.010347398    110.80896    889.64171 
    3300    62.174294   0.25481443   0.87231345  0.048029387         0.02    4.1046765  0.010463162    108.78352    888.72865 
    3400    63.213838   0.25490818   0.88740274  0.048029387         0.02    4.6006664  0.010013035    107.63104    888.09495 
    3500    64.227995   0.25370929   0.90221311  0.048029387         0.02    4.0516677  0.010445823    109.51391    887.00391 
    3600    65.331489   0.25548132   0.91729486  0.048029387         0.02    4.0918279  0.010648096    109.41626    885.94457 
    3700    66.379021   0.25463112   0.93113328  0.048029387         0.02    3.8633981  0.010670307    109.64047    884.84446 
    3800     67.35182   0.25672531   0.94453227  0.048029387         0.02    5.2929892  0.008228321    108.96829    883.89667 
    3900    68.267157   0.25571794   0.95716178  0.048029387         0.02    4.2266802 0.0097664278    110.23329    882.69092 
    4000    69.220582   0.25603767   0.96964718  0.048029387         0.02    4.0576688 0.0095931115    109.22266    881.70156 
    4100    70.208815   0.25609196   0.98268981  0.048029387         0.02    4.2865866  0.010434214    109.98038    880.56826 
    4200    71.249215   0.25666644    0.9964437  0.048029387         0.02    3.9536841  0.010021523    108.35752    879.75624 
    4300    72.291122   0.25551544    1.0099078  0.048029387         0.02     3.937391  0.010344854    109.31794    878.75862 
    4400    73.284775   0.25602867    1.0231116  0.048029387         0.02    4.7903558 0.0093368785    110.33351    877.58182 
    4500    74.214372   0.25691372    1.0345013  0.048029387         0.02    5.1970864 0.0091163734    108.32629    876.77345 
    4600     75.13559   0.25669114    1.0455594  0.048029387         0.02    4.5956349   0.01023204    110.40414    875.59976 
    4700    76.193827   0.25603078    1.0586622  0.048029387         0.02    4.6605518  0.010693716    109.61884    874.56905 
    4800    77.244806   0.25617989    1.0723342  0.048029387         0.02    4.6613278  0.010691283    109.13362    873.62373 
    4900    78.307388   0.25659152    1.0843784  0.048029387         0.02    4.6775121   0.01012577    106.56084    873.10895 
    5000    79.344939   0.25645731    1.0963569  0.048029387         0.02    4.6681352  0.010674514    110.07432     872.0081 
    5100    80.391126   0.25594567    1.1079561  0.048029387         0.02    4.8997678  0.010112756    110.37625    870.86855 
    5200     81.40347   0.25598316    1.1192688  0.048029387         0.02    4.7333165  0.009817096    108.90245    869.96152 
    5300    82.428469    0.2556066    1.1311882  0.048029387         0.02    4.4423448  0.010441309    113.74766    868.35517 
    5400    83.472034   0.25666297    1.1431913  0.048029387         0.02     4.677818  0.010130625    111.56705    867.07678 
    5500    84.503689   0.25622443    1.1544605  0.048029387         0.02    4.3703919   0.00993657    109.02769    866.17097 
    5600    85.556518   0.25625129    1.1671101  0.048029387         0.02    4.2192648  0.011283263    111.40226     864.9352 
    5700    86.655547   0.25682962    1.1808918  0.048029387         0.02    4.2563972   0.01041281    108.71088    864.07893 
    5800    87.622923   0.25635793     1.192577  0.048029387         0.02    4.4333131 0.0095208944    109.95913     863.0509 
    5900    88.582146   0.25719664    1.2038819  0.048029387         0.02    4.2174492 0.0099232706    110.66768    861.93401 
    6000    89.595229   0.25720027     1.215868  0.048029387         0.02    4.3116333  0.010807409    109.61933    860.95961 
    6100    90.673744     0.257622    1.2281402  0.048029387         0.02    4.5473972  0.010819583    108.76304    860.09782 
    6200    91.723991    0.2568344    1.2397081  0.048029387         0.02    4.1273749  0.010589259    108.29015     859.2949 
    6300    92.764145   0.25668219    1.2515558  0.048029387         0.02    4.2819501  0.010881749    110.13459    858.25813 
    6400     93.85878   0.25753163    1.2649716  0.048029387         0.02    4.1038426  0.010874626    110.02781    857.23831 
    6500    94.950572   0.25729378    1.2776752  0.048029387         0.02    4.1965961  0.010616006    108.67323    856.38484 
    6600    96.048567   0.25705775    1.2895677  0.048029387         0.02    4.3062961  0.010587921    111.99463    855.14316 
    6700    97.120443   0.25637939    1.3018885  0.048029387         0.02    4.2545261  0.011133187    109.60526    854.18295 
    6800    98.158159   0.25682633    1.3131851  0.048029387         0.02     4.149834  0.010246033    111.18214    853.04678 
    6900    99.178998   0.25757057    1.3239109  0.048029387         0.02    4.1025062  0.010018175    110.15909    852.03019 
    7000     100.1673   0.25734326    1.3342014  0.048029387         0.02    4.3390293  0.010060446    109.43456    851.09654 
    7100    101.21571   0.25661029    1.3449529  0.048029387         0.02    4.0337866  0.010851699      109.271    850.18138 
    7200    102.27196    0.2567347    1.3556741  0.048029387         0.02    4.4378184  0.010097366     110.3922     849.1464 
    7300    103.27591   0.25582649    1.3658359  0.048029387         0.02    4.0682391  0.010317356    107.76804    848.39506 
    7400    104.33866    0.2568419    1.3766085  0.048029387         0.02    4.2506345   0.01033181    111.19166    847.28143 
    7500     105.3927    0.2574478      1.38844  0.048029387         0.02    4.4418744  0.010746259     110.0438    846.28921 
    7600    106.46424   0.25653026    1.4005417  0.048029387         0.02    4.5516573  0.010518493    107.32643    845.57892 
    7700    107.49872   0.25696189     1.410394  0.048029387         0.02    4.6836898  0.010314845    107.57489    844.83708 
    7800    108.50211   0.25684311    1.4221022  0.048029387         0.02    4.9345949 0.0098182284    109.47841    843.89937 
    7900    109.46982   0.25620094    1.4332529  0.048029387         0.02    4.2504705 0.0091379386    110.91221    842.82461 
    8000     110.4176   0.25752664    1.4438355  0.048029387         0.02    4.3642759 0.0095514022    107.82253     842.0513 
    8100    111.38026   0.25668124    1.4543975  0.048029387         0.02    4.3395118 0.0096280475    108.10672    841.24651 
    8200    112.32044   0.25670338     1.465377  0.048029387         0.02    4.9224492 0.0093709741    108.30668    840.41969 
    8300      113.269   0.25693254    1.4752261  0.048029387         0.02     4.847362 0.0095431203    108.38124    839.58351 
    8400    114.23007   0.25777059    1.4856845  0.048029387         0.02    4.6711121 0.0096254034    107.95135    838.78535 
    8500    115.16069    0.2584475    1.4960772  0.048029387         0.02    5.0769921 0.0093686362    109.03225    837.88531 
    8600    116.10795   0.25764188    1.5076031  0.048029387         0.02    4.6804546   0.01018663    111.95914    836.73005 
    8700    117.10158   0.25806041    1.5178897  0.048029387         0.02    4.2207726  0.010923942    108.79664    835.85327 
    8800    118.18535   0.25910526    1.5297125  0.048029387         0.02    4.2079304   0.01124361    110.34007    834.84229 
    8900    119.23375   0.25799166    1.5414033  0.048029387         0.02    4.2752679  0.010112761    109.78951    833.88019 
    9000    120.20842   0.25884964    1.5524714  0.048029387         0.02    4.7829322 0.0095896272    110.95182    832.82274 
    9100    121.17533   0.25841974    1.5631256  0.048029387         0.02    5.1385449 0.0094300355    110.62509    831.79531 
    9200    122.18272   0.25795519    1.5745312  0.048029387         0.02    4.4434761  0.010084968    108.84828    830.91621 
    9300    123.19572   0.25704981    1.5865714  0.048029387         0.02      4.61189  0.010142185    109.90026    829.95049 
    9400    124.20157   0.25858111    1.5977728  0.048029387         0.02    4.6410571 0.0098926964    107.24468     829.2031 
    9500    125.23415   0.25870829     1.609491  0.048029387         0.02    4.4427212  0.010206932    110.11981    828.21993 
    9600    126.24885   0.25868881     1.621516  0.048029387         0.02    4.5089926 0.0099297881    108.07095    827.40042 
    9700    127.25056   0.25843175    1.6331879  0.048029387         0.02    4.9102049 0.0098764184    108.39227    826.55319 
    9800    128.19519   0.25795609     1.644187  0.048029387         0.02    4.3733323 0.0096075765    110.69893    825.52749 
    9900    129.14952   0.25718096    1.6557357  0.048029387         0.02    4.0019562  0.009403422    108.14482    824.69842 
   10000    130.18898   0.25715172    1.6676139  0.048029387         0.02    4.2145562  0.010609685    109.34541    823.77609 
   10100    131.25277   0.25765235    1.6796873  0.048029387         0.02    4.4397857  0.010875414    106.93505    823.03737 
   10200    132.31326   0.25799363     1.692524  0.048029387         0.02     4.687921  0.010470929    107.23711    822.27162 
   10300     133.3627   0.25723939    1.7057657  0.048029387         0.02    4.3642549  0.010539505    108.03747    821.44248 
   10400    134.32833   0.25887085    1.7163809  0.048029387         0.02    4.8635194 0.0083061115    107.51659     820.6501 
   10500    135.18407   0.25791061      1.72571  0.048029387         0.02    4.2392762 0.0096579068    108.68148    819.77013 
   10600    136.16607   0.25765536     1.736172  0.048029387         0.02    4.3148139  0.010000191    111.35373    818.70318 
   10700    137.16067   0.25673487     1.747941  0.048029387         0.02    4.4884436  0.010380738    108.27235    817.85268 
   10800    138.21497   0.25703728    1.7585728  0.048029387         0.02    4.4865034  0.010553145    108.78219    816.96508 
   10900    139.19948    0.2571285    1.7696321  0.048029387         0.02    4.4782905  0.010124842      109.182    816.04938 
   11000    140.23324   0.25647829    1.7812598  0.048029387         0.02    4.2472467  0.010621949    107.98715    815.21566 
   11100    141.28377   0.25672897    1.7937429  0.048029387         0.02    4.4607446  0.010605316    108.13183    814.37037 
   11200    142.28734   0.25641783    1.8046094  0.048029387         0.02    4.2842566 0.0099647737    109.83798    813.40975 
   11300     143.3101   0.25742105    1.8147261  0.048029387         0.02    4.4804076  0.010275328    108.25382    812.55461 
   11400    144.30581    0.2563463    1.8253026  0.048029387         0.02    4.6307212  0.010586484    109.22706    811.63429 
   11500    145.31719    0.2582521    1.8348025  0.048029387         0.02    5.0933803 0.0098116508    106.75925    810.87691 
   11600    146.33886   0.25733641    1.8460214  0.048029387         0.02     4.629667  0.010717003    109.45144    809.94087 
   11700    147.38281   0.25697984    1.8564603  0.048029387         0.02     4.708305  0.010516649    110.12912    808.96278 
   11800    148.41118    0.2582309    1.8676899  0.048029387         0.02    4.7478577 0.0096119732    110.47809    807.96444 
   11900     149.4137   0.25787004    1.8786508  0.048029387         0.02    4.2040085  0.010125186    110.10571    806.99033 
   12000    150.45221   0.25567721    1.8906374  0.048029387         0.02    3.9566458 0.0099121436    109.56229    806.05035 
   12100    151.48472    0.2561467    1.9019139  0.048029387         0.02    4.1430806  0.010085105    111.70438    804.98367 
   12200    152.53768   0.25605477    1.9145519  0.048029387         0.02    4.1295447  0.011164478    109.16947    804.06941 
   12300    153.63127   0.25667713    1.9259405  0.048029387         0.02    4.1957812  0.010606694    110.10305    803.09973 
   12400    154.70408   0.25746757    1.9373003  0.048029387         0.02    4.1728427  0.011002403    111.33256    802.06019 
   12500    155.78717   0.25730402      1.94894  0.048029387         0.02    4.2611706  0.010884898    111.49898    801.01352 
   12600    156.86476   0.25695511     1.960853  0.048029387         0.02    4.3945934 0.0093427986    108.93484    800.11566 
   12700     157.8355   0.25790641    1.9710236  0.048029387         0.02    4.1737876 0.0097296338    109.17722    799.20349 
   12800    158.80755   0.25792502    1.9812106  0.048029387         0.02    4.3606765 0.0096822506    107.47868    798.38986 
   12900    159.78218   0.25764571    1.9925266  0.048029387         0.02    4.2480353 0.0097585703    110.84694    797.38353 
   13000    160.77646   0.25839949    2.0036157  0.048029387         0.02    4.2203129  0.010492207     106.0802     796.6501 
   13100    161.80535    0.2579922    2.0154974  0.048029387         0.02    4.1891154  0.010537943    109.54449    795.71571 
   13200     162.8455   0.25725781    2.0264466  0.048029387         0.02    4.2411742  0.011013996    110.43562    794.73321 
   13300    163.88819   0.25852502     2.036662  0.048029387         0.02    4.2806758 0.0099200379    111.63754    793.68832 
   13400    164.92441   0.25730802    2.0470459  0.048029387         0.02    3.7549364   0.01176325    110.03266    792.73009 
   13500    166.09607   0.25763831    2.0580247  0.048029387         0.02     3.726075  0.011519005    111.06091    791.71867 
   13600    167.10286   0.25667629    2.0687578  0.048029387         0.02    3.8434183 0.0097088723    110.32341    790.74713 
   13700    168.12961    0.2585114     2.079843  0.048029387         0.02    3.5468765  0.011216819    109.03651    789.84393 
   13800     169.2546   0.25852326     2.092066  0.048029387         0.02    4.0109569  0.011358774    108.55251    788.96607 
   13900    170.31649   0.25819649    2.1030554  0.048029387         0.02    4.3371107 0.0099922539    109.77215    788.02419 
   14000    171.31542   0.25671956    2.1140513  0.048029387         0.02    4.1009642 0.0098848329    108.40118    787.15352 
   14100    172.30122   0.25698786     2.125902  0.048029387         0.02    4.3681018  0.010598392    107.03979    786.35359 
   14200    173.37253   0.25742246    2.1369567  0.048029387         0.02    4.2744114  0.011250975    109.76239    785.41175 
   14300    174.41748   0.25703011    2.1468234  0.048029387         0.02     4.482378  0.010781267    109.27351    784.49478 
   14400    175.49819    0.2574579    2.1576727  0.048029387         0.02    4.1988814   0.01122429    110.93692    783.49626 
   14500    176.57352    0.2576159    2.1688885  0.048029387         0.02    4.8158246  0.010159036    106.81001    782.70445 
   14600    177.64768   0.25778403    2.1809551  0.048029387         0.02    4.3358011  0.011228627    109.82602    781.76027 
   14700    178.73517   0.25856447    2.1928554  0.048029387         0.02    4.1376683  0.011100484    110.12756    780.80208 
   14800    179.82221   0.25859824    2.2041265  0.048029387         0.02    4.1448723 0.0096656983    108.47657    779.92413 
   14900     180.8177   0.25729553    2.2135619  0.048029387         0.02    4.1846916  0.010012097    109.09884    779.01556 
   15000    181.83983   0.25673738    2.2243377  0.048029387         0.02    4.2410234  0.010052079     107.7152     778.1736 
   15100    182.83666   0.25792255    2.2345409  0.048029387         0.02    4.0105998  0.010187107    108.83526    777.27677 
   15200    183.87819    0.2569288    2.2462508  0.048029387         0.02    4.1204674  0.010168148    110.08172    776.32162 
   15300    184.92407   0.25792581    2.2578693  0.048029387         0.02    4.2307092  0.010747793    109.32212    775.40202 
   15400    185.99234   0.25765116    2.2700714  0.048029387         0.02     4.229839  0.010885716    109.60993    774.46928 
   15500    187.06073    0.2566037    2.2823211  0.048029387         0.02     4.288603  0.010601155    109.18271    773.55627 
   15600    188.09318   0.25572228    2.2937946  0.048029387         0.02    4.2994143 0.0093096428    109.60669    772.62406 
   15700    189.03909     0.256855    2.3048905  0.048029387         0.02    4.0770413 0.0088936891    108.04957     771.7627 
   15800    189.92968    0.2568071    2.3142465  0.048029387         0.02    4.0148921  0.008562065    108.86415    770.86362 
   15900    190.89519   0.25792062    2.3245654  0.048029387         0.02    4.0386606  0.010978846    109.18237    769.95014 
   16000    191.95399   0.25737056    2.3362127  0.048029387         0.02    4.3906886  0.010154795    107.20353    769.12538 
   16100    192.98683   0.25797772    2.3465129  0.048029387         0.02    4.3279438   0.01097175    108.47797    768.24217 
   16200    194.00899   0.25717318    2.3573376  0.048029387         0.02    3.7381372  0.010002148    110.38429    767.27613 
   16300    195.01011   0.25685405    2.3685079  0.048029387         0.02    3.8219583  0.010283745    109.98211    766.32784 
   16400    196.01252   0.25784776    2.3791829  0.048029387         0.02    3.8915842 0.0095026698    110.12305     765.3741 
   16500     197.0241    0.2584155    2.3896363  0.048029387         0.02    3.8906827  0.010880317    108.41578    764.49327 
   16600    198.11916   0.25864536    2.4008553  0.048029387         0.02    3.9565186  0.011157807     108.9739    763.58821 
   16700    199.19017   0.25756195    2.4125733  0.048029387         0.02    3.7989992  0.010291823    110.80957    762.60718 
   16800    200.25614   0.25797251    2.4231667  0.048029387         0.02    4.4485145  0.010516229    107.76142    761.75349 
   16900    201.30833   0.25783079    2.4342949  0.048029387         0.02    4.4364714  0.010686237    109.53562    760.82502 
   17000    202.35769   0.25868199    2.4442575  0.048029387         0.02    4.5608625  0.010211637    107.79324    759.96878 
   17100    203.39119   0.25713919    2.4551418  0.048029387         0.02    4.8211889 0.0099738981    107.46205    759.12556 
   17200     204.3858   0.25695105    2.4649924  0.048029387         0.02    4.9215778  0.010005526    110.92562    758.14146 
   17300    205.43918   0.25734373    2.4752663  0.048029387         0.02    4.2124662  0.010664663    113.42897     757.0632 
   17400    206.54396    0.2581284    2.4863078  0.048029387         0.02    4.2449964  0.010805986    109.44079    756.13971 
   17500     207.5967   0.25776337    2.4968255  0.048029387         0.02    4.1278641  0.010659619    110.23561    755.18527 
   17600    208.63058    0.2565313    2.5078538  0.048029387         0.02    4.4228128 0.0097015606    108.58351    754.29599 
   17700    209.64336   0.25760224    2.5179453  0.048029387         0.02    4.9507994 0.0097511678    111.73973     753.2854 
   17800    210.66948   0.25761565    2.5280618  0.048029387         0.02    4.1179549  0.010377425    109.85363    752.34706 
   17900    211.70616   0.25800506    2.5391289  0.048029387         0.02    4.1655925  0.010669267     110.1153    751.39912 
   18000    212.77455   0.25812439    2.5503649  0.048029387         0.02    4.1993594  0.010822499    108.13827    750.52725 
   18100    213.86759   0.25806409    2.5619373  0.048029387         0.02    4.3310292  0.011100403    109.43865    749.60509 
   18200    214.87864   0.25656477    2.5732799  0.048029387         0.02    4.0688568 0.0099537577    110.91591    748.62831 
   18300    215.89662   0.25783689     2.584629  0.048029387         0.02    4.1576976  0.010477995    110.89054    747.65328 
   18400    216.92496   0.25796642    2.5959093  0.048029387         0.02    4.5840719  0.010262847    108.06035    746.78379 
   18500    217.95178   0.25797452    2.6069894  0.048029387         0.02    4.2483106   0.01025619    109.59552    745.85658 
   18600    218.95942   0.25868731    2.6175749  0.048029387         0.02    4.1666472  0.010041766    107.69106    745.00015 
   18700    219.95476   0.25783907    2.6279089  0.048029387         0.02    4.1335252  0.010043564    110.88676     744.0266 
   18800    220.95696   0.25703729    2.6381063  0.048029387         0.02    3.9797173  0.010444965    109.82567    743.09145 
   18900    222.02068   0.25704352     2.647849  0.048029387         0.02    3.6925247  0.010527046    108.81013    742.19303 
   19000    223.04989   0.25551714    2.6571222  0.048029387         0.02    4.8716258 0.0099259557    106.33116    741.38573 
   19100    224.09498   0.25652996    2.6671278  0.048029387         0.02    4.6451902 0.0099735326    110.23074    740.43612 
   19200    225.14637   0.25678716    2.6773335  0.048029387         0.02    4.3481096  0.011199734    108.73523    739.53946 
   19300     226.2703   0.25606005    2.6888072  0.048029387         0.02    4.0583745  0.011426491    108.58556    738.64786 
   19400    227.42777     0.256126    2.7003937  0.048029387         0.02    4.0532563   0.01137756    109.34758    737.72929 
   19500    228.55765   0.25597018    2.7120462  0.048029387         0.02    4.1167161  0.010925108    110.38281    736.77536 
   19600    229.60183   0.25556457    2.7224066  0.048029387         0.02    3.9813814  0.010396374     109.4631    735.85314 
   19700    230.62858   0.25697149    2.7331194  0.048029387         0.02    4.0179224  0.010402785    110.89547    734.88291 
   19800    231.66177   0.25700719    2.7438579  0.048029387         0.02    4.4302443 0.0091942875    109.32141    733.96597 
   19900    232.61276   0.25652397    2.7533394  0.048029387         0.02    4.0642313 0.0095647682    110.46488    733.01093 
   20000    233.56467   0.25740729    2.7637371  0.048029387         0.02    4.0567174 0.0095592856    105.84463    732.21446 
   20100    234.53886   0.25677158     2.773734  0.048029387         0.02     4.572563 0.0092570246    109.73625    731.28332 
   20200    235.47999   0.25587373    2.7831461  0.048029387         0.02    4.5994087 0.0093825818    107.42476    730.42984 
   20300     236.4229   0.25598487    2.7925245  0.048029387         0.02    4.7732349   0.01007819    109.96757    729.49109 
   20400    237.46215   0.25650362     2.802348  0.048029387         0.02     4.494258 0.0099094759    109.01287     728.5837 
   20500    238.50538   0.25643022    2.8122622  0.048029387         0.02    4.2422687   0.01073896    110.02963    727.64334 
   20600    239.58549   0.25620443    2.8233942  0.048029387         0.02    4.2137404  0.010683366    110.78923    726.67927 
   20700    240.60845   0.25651831    2.8329528  0.048029387         0.02     4.299699  0.010307355    109.51077    725.75616 
   20800    241.62356   0.25547018    2.8429281  0.048029387         0.02    4.5902773 0.0098599437    109.59902    724.83035 
   20900    242.61268   0.25689983    2.8534616  0.048029387         0.02    4.2870522 0.0094172583    108.55583    723.93785 
   21000    243.56348   0.25599495    2.8626721  0.048029387         0.02    4.5373725 0.0096094678    107.33681    723.08444 
   21100     244.5522   0.25613267    2.8728905  0.048029387         0.02    4.2375416 0.0096775436    107.54433    722.22355 
   21200    245.56387    0.2564827     2.883125  0.048029387         0.02    4.1386079  0.010270665    108.24197    721.33975 
   21300    246.60691   0.25708219    2.8944851  0.048029387         0.02    4.4143092  0.010224946    111.03562    720.36968 
   21400     247.6708   0.25686033    2.9053112  0.048029387         0.02    4.0851445  0.010693483    111.12455    719.39761 
   21500    248.76738    0.2567795     2.916973  0.048029387         0.02     4.124923  0.011460065    111.18612     718.4244 
   21600     249.8833   0.25719976    2.9275192  0.048029387         0.02    4.1890333  0.010493264    108.92556    717.51962 
   21700    250.96308   0.25662586    2.9390175  0.048029387         0.02    4.0578436  0.010889278    111.47862    716.53885 
   21800    251.99897   0.25722905    2.9491365  0.048029387         0.02    4.5695856  0.010060275    108.11934    715.65883 
   21900    253.04009   0.25678548    2.9597039  0.048029387         0.02    4.4070149  0.010997439    110.19538    714.71626 
   22000     254.0987   0.25746078    2.9710888  0.048029387         0.02    4.5032431 0.0096263102    107.44058     713.8565 
   22100    255.09195   0.25640644    2.9809005  0.048029387         0.02    4.5022431  0.010893472    109.85208    712.92407 
   22200    256.15291   0.25771387    2.9916146  0.048029387         0.02    4.5733269  0.010685918    108.89722    712.01983 
   22300    257.21876    0.2576606    3.0036375  0.048029387         0.02     4.847779  0.010280272    109.73539    711.09101 
   22400    258.30203   0.25787201    3.0151525  0.048029387         0.02    4.4389542  0.011010807    107.83148    710.21809 
   22500    259.36108   0.25714822    3.0261217  0.048029387         0.02    4.7710816  0.010216829    108.18614    709.33422 
   22600    260.42811   0.25724301    3.0378487  0.048029387         0.02    3.8431499  0.010922391    109.04529    708.42505 
   22700     261.4925   0.25743281     3.047888  0.048029387         0.02    3.7909696  0.010310997    106.22116    707.59883 
   22800    262.50807    0.2586175    3.0578218  0.048029387         0.02    3.9037113  0.010317213    109.06744    706.68842 
   22900    263.53332   0.25739502    3.0681326  0.048029387         0.02    3.7082241  0.011168856     108.5066     705.7939 
   23000    264.63082    0.2583307    3.0788077  0.048029387         0.02      4.43528  0.010937738    107.60345    704.92505 
   23100    265.77936   0.25743017    3.0916976  0.048029387         0.02    3.9589435  0.011473656    109.88869    703.99134 
   23200    266.91901   0.25678104    3.1042771  0.048029387         0.02    4.0173121  0.011345007    109.38667    703.07165 
   23300    267.98574   0.25623934    3.1148084  0.048029387         0.02    4.2201309 0.0092687684     110.1711    702.13059 
   23400    268.93727   0.25702617    3.1253586  0.048029387         0.02    4.1243001 0.0095463128    107.64982     701.2594 
   23500    269.88867   0.25769138    3.1351135  0.048029387         0.02    4.0306947 0.0091504999      106.941    700.40776 
   23600    270.94078    0.2571649    3.1470506  0.048029387         0.02    4.3756006  0.010760393    109.84969    699.47526 
   23700    272.01263   0.25727526    3.1591045  0.048029387         0.02    4.4306612  0.010656786    108.49927    698.57943 
   23800    273.02391   0.25631551     3.169977  0.048029387         0.02    4.3437737  0.010043237    109.20608    697.66428 
   23900    273.99727   0.25741643    3.1806199  0.048029387         0.02    4.2254703 0.0097033631    113.17097    696.64697 
   24000    274.96162   0.25677066    3.1901452  0.048029387         0.02    4.3397098 0.0091320807    106.33443    695.81068 
   24100    275.97442   0.25659487    3.2017127  0.048029387         0.02    4.1903586  0.010227257    109.38025    694.89105 
   24200      276.996   0.25638252    3.2124923  0.048029387         0.02    4.3379528  0.010522483    107.90675    694.01057 
   24300    278.05207   0.25632369    3.2237384  0.048029387         0.02    3.8543779  0.010959129    107.96897    693.12804 
   24400    279.14044   0.25789638    3.2362735  0.048029387         0.02     3.971543  0.010966895    107.53983    692.25661 
   24500     280.2425   0.25782956    3.2485641  0.048029387         0.02    4.1630736  0.011212613    107.85045    691.37645 
   24600    281.34953   0.25736008    3.2608744  0.048029387         0.02    3.9674731  0.010169193    108.93849    690.46752 
   24700    282.43473   0.25695684    3.2738297  0.048029387         0.02    4.0094236  0.010752616    109.31999    689.54875 
   24800    283.52552   0.25742516    3.2864771  0.048029387         0.02    3.8348659  0.010720587     109.1192    688.63512 
   24900    284.65794   0.25719994    3.2991975  0.048029387         0.02    3.9046137  0.011547548    108.14165    687.74645 
   25000    285.79745   0.25740827    3.3131176  0.048029387         0.02    4.2336008  0.010910345    110.12259    686.80759 
   25100    286.83017   0.25719692    3.3252445  0.048029387         0.02    5.0956366 0.0097081172    106.78113    685.95377 
   25200    287.89614   0.25701477    3.3368397  0.048029387         0.02    4.4996257   0.01027336    108.87625     685.0458 
   25300    288.95275   0.25709915    3.3484061  0.048029387         0.02    4.1567065  0.010854027    110.68462    684.09345 
   25400    290.02597   0.25638176    3.3607365  0.048029387         0.02    3.9232145  0.010580296    108.12971    683.20417 
   25500    291.09348   0.25768005    3.3714922  0.048029387         0.02    3.8500979  0.010673077    109.63208    682.27759 
   25600    292.15019   0.25771421    3.3828504  0.048029387         0.02    4.6289216   0.01024363    109.10574    681.36391 
   25700    293.20077   0.25683798    3.3933838  0.048029387         0.02    3.9958521  0.010757448    109.30694    680.44534 
   25800     294.3035   0.25740469    3.4034863  0.048029387         0.02    4.1638206   0.01096276    109.05434    679.53288 
   25900    295.43109   0.25653282    3.4152131  0.048029387         0.02     4.071386  0.011521864    108.78481    678.62689 
   26000      296.527   0.25726405    3.4256653  0.048029387         0.02    4.3792196  0.010796835    109.31255    677.70817 
   26100    297.59673   0.25718136     3.435718  0.048029387         0.02    4.2483564  0.010562412    108.44165    676.81028 
   26200    298.64878   0.25719386    3.4467505  0.048029387         0.02    4.5268844  0.010387776     108.0023    675.92277 
   26300    299.69726   0.25785263    3.4567258  0.048029387         0.02    3.9390709  0.010519943    107.88024    675.03791 
   26400    300.77603   0.25789826    3.4674664  0.048029387         0.02    3.9884861  0.010819161    110.72211    674.08639 
   26500    301.80499   0.25816134    3.4773179  0.048029387         0.02     4.269199  0.009254226    108.55771    673.18519 
   26600     302.8116   0.25765472    3.4864717  0.048029387         0.02    3.9219468  0.010298408    110.10802    672.24804 
   26700    303.82648   0.25680998    3.4969905  0.048029387         0.02    4.0707552  0.010247599    108.36855    671.35114 
   26800    304.80951   0.25659048    3.5068202  0.048029387         0.02    4.2847658 0.0096375209    110.27146    670.41055 
   26900    305.76674   0.25603249    3.5165764  0.048029387         0.02    4.3107583  0.010311235    106.66268    669.55358 
   27000      306.786   0.25578794    3.5263845  0.048029387         0.02    4.3369513  0.010235063    108.20344    668.65993 
   27100    307.82077   0.25716051    3.5359999  0.048029387         0.02    4.0277206  0.010279888    107.83171    667.77462 
   27200    308.80666   0.25649812    3.5455277  0.048029387         0.02    4.0720539  0.010079843    109.01891    666.86197 
   27300    309.83562   0.25659475    3.5547836  0.048029387         0.02    4.2309413  0.010382986    109.59097    665.93654 
   27400    310.86898   0.25708232    3.5642688  0.048029387         0.02    4.2128963  0.010214791    107.50006    665.05822 
   27500    311.91314   0.25723135    3.5740154  0.048029387         0.02    3.8773575   0.01082546     107.8864    664.17075 
   27600    313.00296    0.2577671    3.5845598  0.048029387         0.02    4.0444183  0.010837028    108.61961    663.26658 
   27700    314.10084   0.25681689    3.5957262  0.048029387         0.02     4.088137 0.0096079595    109.62904    662.34016 
   27800    315.05741    0.2564987    3.6061522  0.048029387         0.02     4.963847 0.0095060843    108.20054    661.44513 
   27900    316.02821   0.25708444     3.616382  0.048029387         0.02    4.9957582 0.0098807861    109.42294     660.5232 
   28000    317.00622   0.25698032     3.626081  0.048029387         0.02     5.029481 0.0098689109    107.85752    659.63543 
   28100    317.98354   0.25661685    3.6363138  0.048029387         0.02    5.0982689 0.0096883115    107.21022    658.76171 
   28200     318.9537   0.25654429    3.6469756  0.048029387         0.02    3.7070961  0.010620396    107.08002    657.89046 
   28300    320.09077   0.25762038    3.6586886  0.048029387         0.02    3.6644583  0.011671425    109.37484    656.96913 
   28400    321.23641   0.25612547    3.6711706  0.048029387         0.02    4.1395212  0.011419967    108.81679    656.05966 
   28500    322.25784   0.25569463    3.6809573  0.048029387         0.02    4.0612797 0.0095757021    109.57666    655.13414 
   28600    323.26719   0.25657763    3.6916116  0.048029387         0.02    4.0117693  0.010524381    109.68377    654.20649 
   28700    324.33053   0.25776384    3.7028566  0.048029387         0.02    3.7879994  0.011037012    109.77057    653.27715 
   28800    325.42931   0.25751563    3.7143028  0.048029387         0.02    3.9038968  0.011316233    109.60861    652.35127 
   28900    326.54218   0.25794021    3.7263752  0.048029387         0.02    3.9623439  0.011859748    110.14222    651.41461 
   29000     327.6692   0.25724071    3.7388381  0.048029387         0.02    4.0450987  0.011343728    109.50985    650.49099 
   29100    328.73528   0.25715877    3.7497874  0.048029387         0.02    3.5784694  0.010538434    111.05594    649.53646 
   29200    329.82238   0.25762355    3.7617164  0.048029387         0.02    3.8578373   0.01055068    108.78352    648.62791 
   29300    330.95242   0.25703928    3.7755196  0.048029387         0.02     4.181189  0.010725403    111.50248     647.6652 
   29400    332.05029   0.25745283    3.7879438  0.048029387         0.02    4.0150186  0.010474956    108.47575    646.76303 
   29500    333.11333   0.25738503    3.8004134  0.048029387         0.02    4.2383527 0.0098666465    111.38016    645.80327 
   29600    334.09373   0.25868228    3.8118014  0.048029387         0.02    3.7788125 0.0096490987    106.83076    644.93487 
   29700    335.06675   0.25698314    3.8228589  0.048029387         0.02    4.2872146 0.0099152261     112.6476     643.9516 
   29800    336.05718   0.25730859    3.8341052  0.048029387         0.02    4.8946703  0.010079454    109.68256    643.02551 
   29900    337.05473   0.25760496    3.8451824  0.048029387         0.02    4.1672436 0.0096769581    110.69525    642.07995 
   30000    338.03209   0.25764452    3.8554724  0.048029387         0.02    3.5680977  0.010312904    108.14987    641.18429 
   30100    339.06534   0.25738495    3.8664344  0.048029387         0.02    3.7429694  0.010850819    107.98821    640.29165 
   30200    340.14571   0.25712925    3.8780534  0.048029387         0.02    3.8311308  0.010385725    108.56549    639.38741 
   30300    341.22364    0.2562492    3.8909139  0.048029387         0.02    3.8480977  0.010831641    110.81841    638.43998 
   30400    342.32925   0.25727726    3.9029152  0.048029387         0.02    4.6980662  0.010300895    109.70098    637.51389 
   30500    343.32775   0.25657922    3.9148779  0.048029387         0.02    4.5679846 0.0097944086     111.0435    636.56279 
   30600    344.30061   0.25692383    3.9248759  0.048029387         0.02    4.3856638 0.0093878538    110.14575    635.62866 
   30700    345.24727   0.25744372    3.9348329  0.048029387         0.02    4.6024932 0.0096366711    110.30429    634.69175 
   30800    346.20504   0.25696848    3.9447682  0.048029387         0.02    4.4423651 0.0095215362    109.47304    633.77051 
   30900    347.17798   0.25762852    3.9551709  0.048029387         0.02    4.4231584 0.0096560717     109.8534    632.84225 
   31000    348.14396   0.25734067    3.9644917  0.048029387         0.02    4.1022701 0.0097517638    107.67091    631.95517 
   31100    349.11574   0.25716487    3.9742542  0.048029387         0.02    4.3886753  0.009933317    106.76767    631.08524 
   31200    350.09873   0.25664045    3.9850146  0.048029387         0.02    4.0842198  0.010601537    108.04913    630.19038 
   31300    351.13581   0.25781273    3.9949748  0.048029387         0.02    4.0729154  0.010382475    109.62701    629.26608 
   31400    352.16821   0.25671857    4.0054335  0.048029387         0.02    4.3928521  0.010307822    108.27738    628.36671 
   31500    353.18772   0.25811857    4.0161868  0.048029387         0.02    4.1668535  0.010238087    109.34923    627.44749 
   31600    354.19169   0.25831056    4.0264821  0.048029387         0.02    4.0752003 0.0099151182    107.15186     626.5689 
   31700    355.18466     0.257532    4.0361647  0.048029387         0.02    4.6016026  0.009887947    110.33679    625.63192 
   31800    356.13099   0.25691363    4.0472551  0.048029387         0.02    4.6316569  0.009712151     110.3849    624.69428 
   31900    357.09861   0.25662431    4.0571965  0.048029387         0.02    4.4501414 0.0092927804    109.51237    623.77226 
   32000    358.04224   0.25722688    4.0673003  0.048029387         0.02    4.2747728 0.0094412144    108.95156    622.86027 
   32100    358.99613   0.25671856    4.0778236  0.048029387         0.02    3.9001684 0.0096659362    107.86393    621.96783 
   32200    359.98497   0.25843757    4.0879239  0.048029387         0.02    3.8889778 0.0095709192    110.63674    621.02625 
   32300    361.01319   0.25841255    4.0994501  0.048029387         0.02    4.1397341  0.010882484    112.13841    620.05953 
   32400    362.05138   0.25792277    4.1110135  0.048029387         0.02    4.2134818  0.010217166    110.21238    619.12579 
   32500    363.07711   0.25840305    4.1213703  0.048029387         0.02    4.0091878  0.010894661    108.54358    618.22119 
   32600    364.12095   0.25741691    4.1327813  0.048029387         0.02    4.8128546  0.010300017    109.65948     617.2971 
   32700    365.12229   0.25819495    4.1426835  0.048029387         0.02    4.5152511 0.0092756888    108.67934    616.39001 
   32800    366.04437   0.25738163    4.1528067  0.048029387         0.02    3.8264791  0.010626382    109.15398    615.47464 
   32900    367.09755   0.25763539    4.1638356  0.048029387         0.02    4.4712629 0.0095526647    109.19868    614.55851 
   33000     368.0261   0.25742981    4.1743076  0.048029387         0.02    4.1849331 0.0094658726    107.86055    613.66544 
   33100    368.96804   0.25850626     4.183813  0.048029387         0.02     3.863254 0.0093911556    107.98228    612.77006 
   33200     369.9108   0.25679155    4.1937308  0.048029387         0.02    3.6049082  0.010019868    106.99316    611.89171 
   33300    370.85732    0.2581768    4.2029134  0.048029387         0.02    3.4771045 0.0097490411    108.96334    610.97918 
   33400    371.81723   0.25687694    4.2130331  0.048029387         0.02    4.0942793  0.010057276    110.22805    610.04562 
   33500    372.82437   0.25669394    4.2243367  0.048029387         0.02    3.9955722  0.009852536    109.91656    609.11732 
   33600     373.7832   0.25685615    4.2339992  0.048029387         0.02    4.6890479  0.008744208    112.57268    608.14671 
   33700    374.67188   0.25731316    4.2434539  0.048029387         0.02    4.7131255 0.0088000235    109.82179    607.22037 
   33800    375.62427   0.25771911    4.2541273  0.048029387         0.02    4.5854896 0.0096174414    110.24291     606.2873 
   33900    376.60117   0.25822787    4.2640887  0.048029387         0.02    4.2487183 0.0098089459    108.84958    605.37703 
   34000    377.58226   0.25730483    4.2751373  0.048029387         0.02    3.6934356  0.010022894    107.12361    604.49545 
   34100    378.58665   0.25635212    4.2862284  0.048029387         0.02    3.8673474  0.010038554    110.10342    603.56473 
   34200    379.57921   0.25647871    4.2962328  0.048029387         0.02    4.4108731 0.0089995335    110.29274    602.63115 
   34300    380.55008    0.2582039    4.3062665  0.048029387         0.02    4.3293464 0.0098065831    109.96091    601.70296 
   34400    381.52436    0.2563197    4.3172214  0.048029387         0.02     4.630667 0.0099436616    110.19781    600.77115 
   34500    382.52648   0.25732984    4.3280345  0.048029387         0.02      4.29105  0.010192563    110.52018    599.83446 
   34600    383.58158    0.2574834    4.3397117  0.048029387         0.02    4.0881531  0.010605843    110.84705    598.89292 
   34700    384.62484   0.25794559    4.3519195  0.048029387         0.02    4.1235846  0.010424722    108.33099    597.99103 
   34800    385.69772   0.25678679    4.3635539  0.048029387         0.02    4.3038965  0.010787378    111.60228    597.03832 
   34900     386.7552   0.25647636    4.3749558  0.048029387         0.02    4.5664328 0.0097893696    108.94075    596.12677 
   35000    387.70316   0.25637574    4.3853096  0.048029387         0.02    3.8820175  0.010674843     110.8339    595.18607 
   35100    388.74445   0.25694792    4.3967753  0.048029387         0.02    4.3535592  0.010713337    108.39533    594.28311 
   35200    389.81609   0.25662111    4.4085017  0.048029387         0.02    3.9034412  0.010823216     111.4004    593.33424 
   35300    390.90458   0.25659073    4.4193937  0.048029387         0.02    4.2006937  0.010479053    109.49256    592.41432 
   35400    391.98376   0.25668549    4.4304922  0.048029387         0.02    4.2491708  0.011054512    108.04164    591.51682 
   35500    393.05455   0.25606389    4.4413514  0.048029387         0.02    4.3079554  0.010930176    107.98846    590.61999 
   35600    394.13472   0.25772179    4.4517603  0.048029387         0.02    4.4042359 0.0097578669    110.06572    589.69138 
   35700    395.20548   0.25674861    4.4627352  0.048029387         0.02    4.1617103  0.010826499    109.37869    588.77316 
   35800    396.27064   0.25715538    4.4732773  0.048029387         0.02    4.3768352  0.010739845    108.98398     587.8609 
   35900    397.36389   0.25662087    4.4834594  0.048029387         0.02    3.8166024  0.010597855    109.08361    586.94712 
   36000    398.42189    0.2566873    4.4942563  0.048029387         0.02    4.0012588  0.010589221    106.48506    586.07309 
   36100    399.47015   0.25711843    4.5045192  0.048029387         0.02    4.7418189  0.010132768    108.56653    585.16682 
   36200    400.52636   0.25853577    4.5153229  0.048029387         0.02    4.2380597  0.011497116     110.0563    584.23851 
   36300    401.66089   0.25667249    4.5280115  0.048029387         0.02    3.7430026  0.011542333    109.76888    583.31448 
   36400    402.78283   0.25708157    4.5398185  0.048029387         0.02    3.9955131   0.01135726    110.03084    582.38672 
   36500    403.90001   0.25752445    4.5522021  0.048029387         0.02    3.9294327  0.011360413    108.61042    581.47975 
   36600    405.03281   0.25731645    4.5645663  0.048029387         0.02    3.7144599  0.011664738    109.76457    580.55594 
   36700    406.14101    0.2577305     4.576754  0.048029387         0.02    4.4303854  0.010998714    108.04501     579.6572 
   36800    407.20751   0.25712579    4.5890776  0.048029387         0.02    4.1810533  0.010192395    108.96357    578.74492 
   36900    408.17497   0.25710579    4.6000568  0.048029387         0.02    4.0764968  0.009443044    109.41866    577.82608 
   37000    409.12109   0.25682057    4.6110904  0.048029387         0.02    4.2907139 0.0094767635     108.0008     576.9277 
   37100     410.0547   0.25757335     4.621145  0.048029387         0.02    4.2385216 0.0098674889    106.78227    576.04708 
   37200    410.98753   0.25679504    4.6308945  0.048029387         0.02    3.9684182 0.0097670162    108.21447    575.14524 
   37300    411.99649   0.25801241    4.6422661  0.048029387         0.02    3.8962704  0.011480771    108.36161    574.24117 
   37400    413.12529   0.25778043    4.6540832  0.048029387         0.02    3.9628472  0.011384097    109.33934    573.32319 
   37500    414.24069   0.25796673    4.6651661  0.048029387         0.02    4.1788414  0.010475779    109.31255    572.40559 
   37600    415.32215   0.25735789    4.6764196  0.048029387         0.02    3.9509411  0.011495371     108.2141    571.50343 
   37700    416.35003   0.25780372    4.6877419  0.048029387         0.02    4.5904287 0.0097771391    109.46487     570.5837 
   37800    417.35814     0.257483    4.7001533  0.048029387         0.02    4.9564748 0.0098421264    106.43143    569.70684 
   37900    418.34383   0.25708971    4.7118477  0.048029387         0.02    5.1023744 0.0093777396    108.85373     568.7954 
   38000    419.31751   0.25724931    4.7234855  0.048029387         0.02    4.6327683 0.0095665332    106.73534    567.91367 
   38100    420.24437   0.25790237    4.7341733  0.048029387         0.02    4.4965352 0.0093062708    106.86168    567.02985 
   38200    421.20876   0.25765144    4.7446511  0.048029387         0.02    4.5927897  0.010453871    109.66366    566.10707 
   38300    422.25012   0.25761387    4.7565412  0.048029387         0.02    4.1987789  0.010310047    106.31569    565.23061 
   38400    423.28094   0.25699987    4.7676481  0.048029387         0.02    4.1319309  0.010294549    110.20074    564.30062 
   38500    424.29393   0.25756176    4.7790163  0.048029387         0.02    4.2940087 0.0096503997    107.74249    563.40383 
   38600    425.33014   0.25705393    4.7897658  0.048029387         0.02    3.7593893  0.010783096     109.2976    562.48586 
   38700    426.40092   0.25763433    4.8014176  0.048029387         0.02    5.0122273 0.0098315874    107.19551    561.59633 
   38800    427.41636   0.25779364    4.8129693  0.048029387         0.02    4.6983987  0.010411593    109.11562    560.68068 
   38900    428.44914   0.25820256    4.8249217  0.048029387         0.02     4.647961  0.010147859    108.76648    559.76965 
   39000    429.43466   0.25803285     4.835895  0.048029387         0.02    4.5024365 0.0096953053    110.04648    558.84185 
   39100    430.36931   0.25772013    4.8465385  0.048029387         0.02    3.9936393 0.0096060451    108.80031    557.93036 
   39200    431.31595   0.25672167     4.858223  0.048029387         0.02    4.1328195 0.0095355685    108.22815    557.02637 
   39300      432.305   0.25766721    4.8694125  0.048029387         0.02     4.420396  0.010435049    108.78233      556.115 
   39400     433.3406   0.25498887    4.8813925  0.048029387         0.02     4.369702  0.010242842    110.13083    555.18628 
   39500     434.3821   0.25697752    4.8919093  0.048029387         0.02    4.3047976  0.010043363    110.90113    554.24801 
   39600    435.43918   0.25787571    4.9040649  0.048029387         0.02    4.1546972  0.010570251    108.16306    553.34473 
   39700    436.50109   0.25805178    4.9167477  0.048029387         0.02    4.6236041  0.010806984    110.15837    552.41592 
   39800     437.6027   0.25831347    4.9287733  0.048029387         0.02    4.2065245  0.010819674    109.07813    551.50081 
   39900    438.69979   0.25765329    4.9406375  0.048029387         0.02      4.21119  0.010715414    109.20309    550.58411 
   40000    439.74729   0.25772978    4.9530155  0.048029387         0.02    3.7699729  0.011366679    108.81702    549.67228 
   40100    440.87615   0.25831017    4.9661391  0.048029387         0.02    3.9537569  0.011852859    108.44541    548.76513 
   40200    441.93383   0.25866238    4.9773995  0.048029387         0.02    4.1037642  0.010419165    107.72298     547.8671 
   40300    442.96616   0.25739811    4.9886313  0.048029387         0.02    4.3878854   0.01020927    108.71669    546.95635 
   40400    443.99266   0.25746393    4.9995675  0.048029387         0.02    4.6400599  0.010560422    111.11566    546.01626 
   40500    445.05081   0.25677016    5.0117358  0.048029387         0.02    4.5524536 0.0099424796    108.93532    545.10283 
   40600    445.99561   0.25696317    5.0222822  0.048029387         0.02    4.2109971 0.0091900367    108.29754    544.19729 
   40700    447.03665   0.25694996    5.0335868  0.048029387         0.02    4.1623978   0.01138639     110.4033      543.266 
   40800    448.16857   0.25706912    5.0460208  0.048029387         0.02    3.8526352  0.011191594    108.69542    542.35548 
   40900    449.26029   0.25694324    5.0586189  0.048029387         0.02    4.0775564  0.010979709    108.09831    541.45226 
   41000    450.34276   0.25665336    5.0712886  0.048029387         0.02    4.1322858  0.010367534    108.61134    540.54265 
   41100    451.41161   0.25619574    5.0827122  0.048029387         0.02    4.2062857  0.010710901    109.09255    539.62716 
   41200    452.43736   0.25677692    5.0932401  0.048029387         0.02    4.7333539  0.010209401    110.85136    538.69091 
   41300    453.42091   0.25674665    5.1041312  0.048029387         0.02    5.2039458 0.0094958454    107.12728     537.7994 
   41400    454.37458   0.25661037    5.1152617  0.048029387         0.02    4.5120404  0.010422307    107.48827    536.90325 
   41500    455.40205   0.25710999     5.126708  0.048029387         0.02    4.4311365  0.010143883    108.52864    535.99436 
   41600    456.42609   0.25764587    5.1389119  0.048029387         0.02    4.1365204  0.010442862    111.49948    535.05094 
   41700    457.44977   0.25787643    5.1510853  0.048029387         0.02    3.9882425  0.010342777    111.26776    534.11036 
   41800    458.49086   0.25786403    5.1617857  0.048029387         0.02    3.8823788  0.010587913    111.52074    533.16714 
   41900    459.45547   0.25700891    5.1712269  0.048029387         0.02    3.9122136 0.0095201108    109.72265    532.24452 
   42000    460.42821   0.25800261    5.1822914  0.048029387         0.02    3.7873808  0.010105868    105.52298    531.37205 
   42100     461.4425   0.25660723    5.1934726  0.048029387         0.02    4.1325203  0.010290137     105.1066    530.50438 
   42200    462.45354   0.25772056    5.2048613  0.048029387         0.02    4.6886263  0.010431351    108.93838    529.59047 
   42300    463.52284   0.25691503    5.2174026  0.048029387         0.02    5.1296545  0.009745127    110.51177    528.65872 
   42400     464.5093   0.25777544    5.2283303  0.048029387         0.02    4.7035385  0.010372231    110.58304    527.72631 
   42500     465.5751   0.25757111     5.240736  0.048029387         0.02    4.0801045  0.010648419     110.3419     526.7967 
   42600     466.6809   0.25703236    5.2553177  0.048029387         0.02    4.3001865  0.011540023    111.02093    525.85973 
   42700    467.77019   0.25738184    5.2665958  0.048029387         0.02    4.5991111  0.010580715    109.33013    524.94162 
   42800    468.81317   0.25761417    5.2775453  0.048029387         0.02    4.8000379  0.010270067    108.59756    524.03178 
   42900    469.81875   0.25781723     5.289491  0.048029387         0.02     4.294116 0.0095349794    108.44729    523.12358 
   43000    470.76553   0.25650833     5.300112  0.048029387         0.02    4.1461439 0.0095301827    109.60561     522.2024 
   43100    471.73012   0.25653299    5.3112018  0.048029387         0.02    4.1847334 0.0094067512    106.15532    521.32042 
   43200    472.72513   0.25670387    5.3218996  0.048029387         0.02    4.0052212  0.011236401    110.84202    520.38578 
   43300    473.85046   0.25649517    5.3359006  0.048029387         0.02    3.9422748  0.011450187    110.34994    519.45656 
   43400    474.96008   0.25657336    5.3476839  0.048029387         0.02    4.6082233  0.010762001    110.85013    518.52211 
   43500    476.02822   0.25652592     5.358954  0.048029387         0.02    4.4856705  0.010800386    110.74599    517.58891 
   43600    477.03932   0.25732165    5.3698727  0.048029387         0.02    4.1263561 0.0098268514     109.7948    516.66598 
   43700    478.07725   0.25743753    5.3817012  0.048029387         0.02    4.0843211  0.010364291    110.03121    515.74057 
   43800    479.12182   0.25664486    5.3935979  0.048029387         0.02    4.3735219 0.0095526547    108.82684    514.82815 
   43900    480.10446   0.25638337    5.4046036  0.048029387         0.02    4.2371197  0.010126191    109.76876    513.90562 
   44000    481.10488   0.25716123    5.4150897  0.048029387         0.02    4.6717819 0.0099744928    109.90363    512.98172 
   44100    482.10019    0.2573465    5.4261221  0.048029387         0.02    4.3330862 0.0098623978    104.69616    512.11525 
   44200     483.0806   0.25727906    5.4363123  0.048029387         0.02    4.1094424 0.0098575556    109.17256    511.19894 
   44300     484.0912   0.25733234    5.4468391  0.048029387         0.02    4.5738785  0.010025165    106.47325    510.31183 
   44400    485.08138   0.25728309    5.4584426  0.048029387         0.02    3.9865257  0.010269683    105.97937    509.42996 
   44500    486.10693   0.25596475    5.4695802  0.048029387         0.02    4.2022178   0.01033856    107.25343    508.53384 
   44600    487.14775   0.25685735    5.4803459  0.048029387         0.02    4.1192013  0.010488237    109.54114    507.61336 
   44700    488.19836   0.25673412    5.4920391  0.048029387         0.02    4.1399226  0.010659427    108.10204    506.70796 
   44800     489.2764   0.25664696    5.5033838  0.048029387         0.02     4.052489   0.01088617    110.91456    505.77357 
   44900    490.37005   0.25702342    5.5151771  0.048029387         0.02    3.9725177  0.010753613      107.386    504.87567 
   45000     491.3998   0.25633112    5.5264796  0.048029387         0.02    4.6259441 0.0098302009    106.86375    503.98319 
   45100     492.3841   0.25548964    5.5371478  0.048029387         0.02    4.7394429  0.010351673    109.31876    503.06494 
   45200    493.38484   0.25628324    5.5485363  0.048029387         0.02    4.4442994 0.0099885337    111.72622    502.12281 
   45300    494.31146   0.25644593    5.5587212  0.048029387         0.02    4.5074222 0.0089583645    107.39282    501.22449 
   45400    495.21386   0.25642595    5.5686598  0.048029387         0.02    4.5779779  0.009062225    109.94665    500.30002 
   45500     496.1372   0.25642328    5.5788496  0.048029387         0.02    4.6019099  0.010379539    109.65873    499.37847 
   45600    497.15329   0.25530108    5.5887108  0.048029387         0.02    4.8291076  0.010106436    109.51368     498.4584 
   45700     498.1446   0.25637056    5.5989766  0.048029387         0.02    4.4546019  0.010196256    109.29056    497.54059 
   45800    499.14597   0.25553953    5.6103736  0.048029387         0.02     4.596768  0.010079405    108.51036    496.63056 
   45900    500.15269   0.25675423    5.6207395  0.048029387         0.02    4.6272774  0.010485382    108.25172    495.72309 
   46000    501.20904   0.25638758    5.6318661  0.048029387         0.02    3.9744747  0.010697789    108.47444    494.81332 
   46100    502.25801   0.25654519    5.6427665  0.048029387         0.02    4.5699644 0.0098875346    110.18739    493.88673 
   46200    503.27689   0.25628718    5.6523466  0.048029387         0.02     4.145165  0.010527345    107.88918    492.98275 
   46300    504.33543   0.25704317    5.6640939  0.048029387         0.02    4.1460101  0.010744003    111.25959    492.04609 
   46400    505.39213   0.25575499     5.675884  0.048029387         0.02    4.2473787  0.010841452    111.73619    491.10518 
   46500    506.47103   0.25753809    5.6867585  0.048029387         0.02    4.6084815  0.010515919    108.16203    490.19848 
   46600    507.53473   0.25657662    5.6977232  0.048029387         0.02    4.3734227  0.010030295    107.83567    489.29492 
   46700    508.57592   0.25618303    5.7093524  0.048029387         0.02    4.4735391  0.010870262    110.58423    488.36495 
   46800    509.64832   0.25635366    5.7217966  0.048029387         0.02     4.426891  0.010415513    109.36334    487.44656 
   46900    510.71781   0.25670277    5.7328394  0.048029387         0.02    4.4573571  0.010306027     111.1672    486.51139 
   47000     511.7519   0.25803042    5.7439729  0.048029387         0.02    4.4638494 0.0099749702    108.60052    485.60035 
   47100    512.74748   0.25689619    5.7547034  0.048029387         0.02    4.4441462 0.0098604001    107.72981    484.69762 
   47200     513.7488   0.25864931    5.7645882  0.048029387         0.02    4.2240922  0.010063543    108.04737    483.79174 
   47300    514.82017   0.25753919    5.7761546  0.048029387         0.02    3.7388077  0.010135115    107.30891    482.89286 
   47400    515.84864   0.25821125    5.7872165  0.048029387         0.02    4.1846584  0.010334505    110.29956    481.96581 
   47500    516.86316   0.25708799     5.797885  0.048029387         0.02    4.1300675 0.0099377437    109.33073    481.04773 
   47600    517.91952   0.25745047    5.8084367  0.048029387         0.02    4.4425882  0.010990502    110.66648     480.1175 
   47700    519.03049   0.25709429    5.8209677  0.048029387         0.02    4.2401453  0.010980359    109.49293    479.19801 
   47800    520.13348   0.25738098    5.8321007  0.048029387         0.02    3.8547308  0.010300691    111.72696     478.2586 
   47900    521.19426   0.25729039    5.8435288  0.048029387         0.02    4.7300748  0.010384857     111.2623    477.32344 
   48000    522.24035    0.2567846    5.8541424  0.048029387         0.02    4.5067762   0.01056501    109.55805    476.40358 
   48100    523.30464   0.25706103    5.8647245  0.048029387         0.02    4.6050799  0.010284469    110.43635    475.47591 
   48200    524.33679     0.256701    5.8749081  0.048029387         0.02     4.504984 0.0099082978    108.38863    474.56673 
   48300    525.38753   0.25627679     5.885654  0.048029387         0.02     4.413789  0.010921187    110.26697    473.64066 
   48400    526.45599   0.25701962    5.8964624  0.048029387         0.02    4.3290808  0.010588481     109.4849    472.72158 
   48500    527.52405   0.25774618    5.9076765  0.048029387         0.02    4.3864512  0.010542103    111.58771    471.78425 
   48600    528.56665   0.25700988    5.9188013  0.048029387         0.02    3.8888355  0.011080509    109.19391    470.86786 
   48700    529.63693   0.25712672     5.929744  0.048029387         0.02    4.0766846  0.010410421    110.99619    469.93581 
   48800    530.64716   0.25811599    5.9398275  0.048029387         0.02    4.1838089   0.01019686    108.47775    469.02584 
   48900    531.66355   0.25768319    5.9506199  0.048029387         0.02    4.2428215  0.010116083     108.6386    468.11439 
   49000     532.6718   0.25697486    5.9623815  0.048029387         0.02    4.2757015    0.0100649    107.40008    467.21395 
   49100    533.67769   0.25637649    5.9730816  0.048029387         0.02    4.2878433  0.010019548    107.80183    466.30979 
   49200    534.66723    0.2575167    5.9832437  0.048029387         0.02     4.163031  0.010264234    108.40757    465.40018 
   49300    535.62696   0.25747902     5.993571  0.048029387         0.02    3.9535152 0.0098354808    110.34982    464.47382 
   49400    536.66469   0.25739754    6.0048933  0.048029387         0.02    4.0306898  0.010433406    107.11076    463.57562 
   49500    537.70605   0.25724946    6.0163006  0.048029387         0.02    4.1963394  0.010239892    107.42234     462.6745 
   49600    538.72536    0.2576095    6.0268962  0.048029387         0.02    3.9244448 0.0096954345    109.21418    461.75775 
   49700     539.6872   0.25868737    6.0375811  0.048029387         0.02    4.7403374 0.0096975603     111.6565    460.82074 
   49800    540.65636   0.25807517    6.0489709  0.048029387         0.02    4.3326594 0.0095094701    110.45537     459.8937 
   49900     541.5976   0.25731965    6.0596091  0.048029387         0.02    4.9093477 0.0092995925    109.92538    458.97114 
   50000     542.5404   0.25789132    6.0698524  0.048029387         0.02    4.2718323   0.00938507    109.89822    458.04885 
   50100    543.52623   0.25745102    6.0813234  0.048029387         0.02    4.2904616  0.010807255    108.09967    457.14169 
   50200    544.58962   0.25894309    6.0935483  0.048029387         0.02    4.2680386  0.010459946     108.2196    456.23345 
   50300    545.65624   0.25755654    6.1058351  0.048029387         0.02    4.1070004  0.010628525    110.99839    455.30228 
   50400    546.70895   0.25729068    6.1182381  0.048029387         0.02    4.1636669  0.010199642    106.67158    454.40719 
   50500    547.75565    0.2581247     6.130904  0.048029387         0.02     3.897299  0.011768429    110.54328    453.47976 
   50600    548.83979   0.25755779    6.1443447  0.048029387         0.02    3.9730833  0.010612515    110.50565    452.55271 
   50700    549.91627   0.25797633     6.156093  0.048029387         0.02    4.0848174  0.010385979    108.02611    451.64595 
   50800    550.99106   0.25852537    6.1689945  0.048029387         0.02    4.1231968  0.010488597    108.19655    450.73771 
   50900    552.04576   0.25821756    6.1801954  0.048029387         0.02    4.1110937   0.00976962    109.69025    449.81725 
   51000     553.0111   0.25852544     6.192201  0.048029387         0.02    4.1466772 0.0096704125    108.69083    448.90489 
   51100    554.00041   0.25785923    6.2033362  0.048029387         0.02    4.0937018  0.010760673    107.88707    447.99906 
   51200    555.04471    0.2582962    6.2150674  0.048029387         0.02    4.2182955   0.01105879    109.54884    447.07974 
   51300    556.11351   0.25704839    6.2255322  0.048029387         0.02    4.1650197  0.010836518    108.93778    446.16531 
   51400    557.13027   0.25755124    6.2367143  0.048029387         0.02    3.8587052  0.010187978    108.36326    445.25547 
   51500    558.13593   0.25739864    6.2470262  0.048029387         0.02     3.874163  0.010363246    109.26431    444.33841 
   51600    559.16223   0.25791593    6.2582776  0.048029387         0.02    3.9812056  0.010283801    106.87347    443.44056 
   51700    560.20439   0.25806591    6.2704164  0.048029387         0.02    4.0232596  0.010292676    110.40414    442.51461 
   51800     561.2441   0.25969145    6.2823838  0.048029387         0.02    3.7919112 0.0099790986    107.32701     441.6129 
   51900    562.18023   0.25887172      6.29289  0.048029387         0.02    3.8578262 0.0090881408    108.03802     440.7054 
   52000    563.16183   0.25804696    6.3037804  0.048029387         0.02    4.1469933  0.010519523    109.97605    439.78277 
   52100    564.19789   0.25698821    6.3157146  0.048029387         0.02    4.0451173  0.010379996    109.57282    438.86326 
   52200    565.26694   0.25646541    6.3286269  0.048029387         0.02    4.2032145  0.010628931    108.61396    437.95116 
   52300      566.292   0.25759341    6.3409698  0.048029387         0.02    4.1673402 0.0098464493    107.71241    437.04606 
   52400    567.32131   0.25815945    6.3535251  0.048029387         0.02    4.1353768   0.01087192    111.24548    436.11408 
   52500    568.33287   0.25769366    6.3664643  0.048029387         0.02    4.1193673  0.010310696    109.19581    435.19749 
   52600    569.37982   0.25782039    6.3781119  0.048029387         0.02     4.223687 0.0097221545    110.06514    434.27439 
   52700    570.41013   0.25751665    6.3904014  0.048029387         0.02    4.2423642  0.010785747    110.47367    433.34833 
   52800    571.50391   0.25864904    6.4034979  0.048029387         0.02    4.4261504  0.010722373    108.34988    432.43821 
   52900    572.56214   0.25861664    6.4150423  0.048029387         0.02    3.8049633  0.009723212    108.77452    431.52483 
   53000    573.53969   0.25871416    6.4262912  0.048029387         0.02    4.0507426  0.010270918    108.05856    430.61683 
   53100    574.60736   0.25755201    6.4392542  0.048029387         0.02    3.9104113  0.010623001    109.20429    429.70019 
   53200    575.62088   0.25805478    6.4516464  0.048029387         0.02    3.9242105 0.0098463184    109.31722    428.78272 
   53300    576.59479    0.2582335    6.4632732  0.048029387         0.02    3.9463662  0.010084094    109.68615    427.86257 
   53400    577.68273   0.25821784    6.4754576  0.048029387         0.02     4.015657  0.011083243    108.52897    426.95093 
   53500    578.75422    0.2588878    6.4884211  0.048029387         0.02    3.9884523  0.010382499     108.0782    426.04259 
   53600    579.83272   0.25624879    6.5013291  0.048029387         0.02    3.9781318   0.01068546    109.99044    425.12027 
   53700    580.85254   0.25746791    6.5131761  0.048029387         0.02    4.0633965  0.010459353    109.39888    424.20223 
   53800    581.92552   0.25767424     6.525584  0.048029387         0.02    4.6900125  0.010384951    108.81631    423.28841 
   53900     582.9745   0.25737537    6.5373074  0.048029387         0.02    4.1212359   0.01097271    109.14026    422.37224 
   54000    584.05011   0.25810922    6.5490341  0.048029387         0.02    4.4703953   0.01049292    109.44356    421.45391 
   54100    585.12404   0.25860118    6.5610546  0.048029387         0.02    4.5001773  0.010505882    108.06967    420.54545 
   54200    586.10976   0.25825448    6.5718934  0.048029387         0.02    4.0970857 0.0095945595    109.52183    419.62655 
   54300    587.06829   0.25795142     6.583197  0.048029387         0.02    4.2991246 0.0092988934    109.10943    418.71059 
   54400    588.01352   0.25849621    6.5943609  0.048029387         0.02    4.4983496  0.010403903    108.86986    417.79631 
   54500    589.07084   0.25925346    6.6070015  0.048029387         0.02    3.8094552  0.010544744     111.7045    416.86256 
   54600    590.14523   0.25886695    6.6193996  0.048029387         0.02     3.793509  0.010742425    110.50091    415.93705 
   54700     591.2153   0.25908521    6.6308366  0.048029387         0.02      3.70406  0.011087604    108.39297     415.0262 
   54800    592.30968   0.25859722    6.6437445  0.048029387         0.02    3.9037414  0.010917206    110.24836    414.10249 
   54900    593.39228   0.25827641    6.6553186  0.048029387         0.02     4.082396  0.010164497    109.37461    413.18481 
   55000    594.46428   0.25794135    6.6666036  0.048029387         0.02    4.3739902  0.010647226    110.39452    412.26022 
   55100    595.50932   0.25801803    6.6777677  0.048029387         0.02    4.7518923  0.009520932    107.44036    411.35599 
   55200    596.52895   0.25746347    6.6894727  0.048029387         0.02    4.1053286  0.010438231    110.46025    410.43102 
   55300    597.59401   0.25833112    6.7011974  0.048029387         0.02    4.1649075  0.010314891    109.95754    409.50947 
   55400    598.62998   0.25807538    6.7118147  0.048029387         0.02    4.4961215  0.010498518    108.43764    408.59822 
   55500      599.683   0.25817455    6.7238778  0.048029387         0.02    4.3828215  0.010116133    106.97405    407.69704 
   55600    600.73433   0.25664497    6.7355831  0.048029387         0.02    4.4696528  0.010302267    110.11507    406.77446 
   55700    601.79453   0.25713776    6.7465397  0.048029387         0.02      3.95707  0.011437583    108.77378    405.86083 
   55800    602.90992   0.25745319    6.7589384  0.048029387         0.02    4.2659977  0.010937682    108.61975    404.94821 
   55900    604.01617   0.25833605    6.7701404  0.048029387         0.02    4.1991345  0.010934948     108.4308    404.03683 
   56000    605.06201   0.25817151    6.7809195  0.048029387         0.02    3.8828114 0.0099538541    107.90222    403.12896 
   56100    606.05636   0.25844139    6.7905232  0.048029387         0.02    4.1233043  0.010170387    109.63254    402.20958 
   56200    607.07304   0.25675605    6.8011576  0.048029387         0.02    4.1665773  0.010091104    109.42848    401.29155 
   56300    608.09738    0.2571754    6.8110299  0.048029387         0.02    4.1480581 0.0099425431      109.151    400.37533 
   56400    609.04356   0.25690111    6.8207151  0.048029387         0.02    4.7517785 0.0093857974    109.69025    399.45564 
   56500    609.97558   0.25735993    6.8309802  0.048029387         0.02    4.5647816 0.0090921026    106.34667    398.55804 
   56600    610.94855   0.25744103     6.842135  0.048029387         0.02    4.3203455  0.011077035    110.00094    397.63634 
   56700    612.02913   0.25812861    6.8536053  0.048029387         0.02    3.8917283  0.010960602    106.83316    396.73527 
   56800    613.15165   0.25802011    6.8654471  0.048029387         0.02     4.088096  0.010974977    110.37029    395.81126 
   56900    614.28752    0.2582455    6.8781485  0.048029387         0.02    4.0720312  0.011367481    111.13742    394.88257 
   57000    615.38845   0.25805687    6.8901005  0.048029387         0.02     4.064309  0.010814627    109.15279    393.96633 
   57100    616.44413   0.25735534    6.9021993  0.048029387         0.02    4.0819227 0.0099403926    108.04373    393.05715 
   57200    617.49144   0.25707345    6.9135772  0.048029387         0.02    3.8945881  0.010350845     109.4274    392.13916 
   57300    618.53097   0.25661597    6.9259349  0.048029387         0.02    4.3022838   0.01041099    109.95307    391.21793 
   57400     619.5404   0.25621197    6.9372419  0.048029387         0.02    3.8626446 0.0099941966    108.82221    390.30376 
   57500      620.486   0.25744863    6.9473677  0.048029387         0.02    4.1535451 0.0090389777    104.52432    389.41749 
   57600    621.39305   0.25645854    6.9574953  0.048029387         0.02    3.9191359 0.0090853194       104.91    388.52839 
   57700    622.30259   0.25621356    6.9678862  0.048029387         0.02    4.1074665 0.0091380156    103.71379    387.64713 
   57800    623.22511   0.25637537    6.9772844  0.048029387         0.02    4.0886748  0.009743567    104.23941    386.76204 
   57900     624.2069   0.25640793    6.9886188  0.048029387         0.02    4.0113384  0.010223947    103.12733    385.88421 
   58000    625.26842   0.25703281    7.0005653  0.048029387         0.02    4.0950845  0.010833097    103.57426    385.00303 
   58100    626.36252    0.2573266    7.0119486  0.048029387         0.02    4.3260322  0.010675002    103.11628    384.12465 
   58200     627.4554   0.25781882     7.024101  0.048029387         0.02    3.9293645  0.010129963    105.27533    383.23168 
   58300    628.54634   0.25763798    7.0359179  0.048029387         0.02    4.1656451  0.011592395    103.85306    382.34781 
   58400    629.66088    0.2574129     7.047977  0.048029387         0.02    4.2360537  0.011396306    104.28811    381.46081 
   58500    630.77538   0.25755047     7.059169  0.048029387         0.02     4.115676  0.011062091    104.16234    380.57439 
   58600    631.82772   0.25722564    7.0699647  0.048029387         0.02    4.0538154  0.010191226    103.55365    379.69171 
   58700    632.85269   0.25679956      7.08051  0.048029387         0.02    3.8305439  0.010222076    103.76123    378.80738 
   58800    633.93994   0.25822321    7.0900676  0.048029387         0.02    3.8222487  0.011295394    103.54926    377.92416 
   58900     635.0555   0.25737834     7.101443  0.048029387         0.02    3.7269201  0.011225385    104.10148    377.03709 
   59000    636.10983   0.25736519    7.1124023  0.048029387         0.02    3.5943473  0.010673684    102.67964    376.15902 
   59100    637.23554   0.25737436    7.1226707  0.048029387         0.02     3.911369   0.01125349    103.70807    375.27393 
   59200    638.35229   0.25696157    7.1347626  0.048029387         0.02    4.1644399  0.011115246    103.19982    374.39185 
   59300    639.41916   0.25795398    7.1467513  0.048029387         0.02    4.6698572  0.010322942     105.0471    373.49779 
   59400    640.44224   0.25713111    7.1578602  0.048029387         0.02    5.0386682 0.0097066498    103.24829    372.61486 
   59500    641.45979   0.25698613    7.1683965  0.048029387         0.02    4.8405049  0.010168718    104.76656    371.72209 
   59600    642.52612   0.25855428    7.1790928  0.048029387         0.02    4.3118029  0.010728426    103.32648    370.83813 
   59700    643.57197   0.25840414    7.1893912  0.048029387         0.02    3.9313774  0.010324228    105.44175    369.94079 
   59800    644.56874   0.25715628    7.1999937  0.048029387         0.02    3.9167003 0.0096761258    103.96707    369.05232 
   59900     645.5656   0.25770235    7.2100015  0.048029387         0.02    3.7720224  0.010275832    103.77502    368.16479 
   60000    646.63427   0.25739337    7.2216355  0.048029387         0.02    3.5874605  0.011391546     106.1427    367.26268 
   60100    647.78364   0.25743215    7.2335788  0.048029387         0.02    3.7277534  0.012069963    108.20087    366.34854 
   60200    648.96712    0.2569191     7.247279  0.048029387         0.02    3.9410534  0.011160485    109.14708    365.42907 
   60300    650.03777   0.25711064    7.2583515  0.048029387         0.02    3.6370282  0.011001512    109.25964    364.50899 
   60400    651.12439   0.25625239    7.2706664  0.048029387         0.02    3.7761461  0.011115333    109.54065    363.58739 
   60500    652.22308   0.25732789    7.2822561  0.048029387         0.02    4.1743484  0.011561767     108.2305    362.67303 
   60600    653.36512   0.25806492     7.293199  0.048029387         0.02    3.8629388  0.010831933    111.92281    361.73882 
   60700    654.48848   0.25806309    7.3051756  0.048029387         0.02     4.356381  0.011164816    108.17908    360.82476 
   60800    655.57162   0.25810993     7.316124  0.048029387         0.02    3.8464305  0.010677341    110.36713    359.89885 
   60900    656.55672   0.25773021    7.3264644  0.048029387         0.02     4.079509  0.011073795    110.25468    358.97361 
   61000    657.61403   0.25768839    7.3376559  0.048029387         0.02    4.3396372  0.010753966     108.9403    358.05542 
   61100    658.66849   0.25814613    7.3491876  0.048029387         0.02    4.5584859  0.010607411     109.7837    357.13273 
   61200    659.73873    0.2583054    7.3615244  0.048029387         0.02    4.3758336  0.011082772    109.12788    356.21356 
   61300    660.78134   0.25836872    7.3732468  0.048029387         0.02    4.4263121  0.010056247    109.70445    355.29136 
   61400    661.78469   0.25804186    7.3846467  0.048029387         0.02    4.5938268 0.0099669289    110.40745    354.36554 
   61500     662.7561   0.25702047    7.3957834  0.048029387         0.02    4.2740137 0.0092950606    108.34859    353.45057 
   61600    663.69091   0.25766666    7.4062781  0.048029387         0.02    4.6384514  0.010033003     109.2292    352.53093 
   61700    664.63117   0.25770555    7.4171062  0.048029387         0.02    4.3094834  0.009372176     108.9186    351.61292 
   61800    665.53477   0.25729213    7.4262031  0.048029387         0.02    3.7230826 0.0095524673    110.57225    350.68642 
   61900    666.50098   0.25698642    7.4365279  0.048029387         0.02     4.058361  0.009478922    108.93626    349.76836 
   62000    667.47158   0.25754025    7.4466511  0.048029387         0.02    3.8928981 0.0097539584    110.22622    348.84371 
   62100     668.4449    0.2574352    7.4572907  0.048029387         0.02    3.8799996 0.0097821472    106.11399    347.94058 
   62200    669.42351   0.25928735    7.4678863  0.048029387         0.02    3.9167205 0.0097664528    108.42234    347.02512 
   62300    670.40697   0.25643146    7.4791999  0.048029387         0.02    4.2768559  0.010152246    108.38558    346.10984 
   62400    671.41968   0.25678249    7.4904515  0.048029387         0.02    3.9395778 0.0099105526    109.90813    345.18682 
   62500     672.4308   0.25731716    7.5007655  0.048029387         0.02     4.354309  0.010456269    109.49459    344.26592 
   62600    673.47192   0.25751273    7.5116453  0.048029387         0.02    4.3573977  0.010535882    110.31914    343.34095 
   62700    674.52402   0.25544885    7.5224882  0.048029387         0.02    3.8822642  0.010287719    109.18521    342.42165 
   62800    675.57975   0.25689534    7.5340277  0.048029387         0.02    3.9019437  0.011238208      108.304    341.50678 
   62900    676.71438   0.25698927     7.546482  0.048029387         0.02    3.9574841  0.011438843    108.99859     340.5884 
   63000    677.82261   0.25720155    7.5587472  0.048029387         0.02    4.0602217  0.010949789    106.66859     339.6818 
   63100    678.89482   0.25756387    7.5706846  0.048029387         0.02    4.0988907  0.010516794    107.40575    338.77134 
   63200    679.96272   0.25755426    7.5817101  0.048029387         0.02    4.0442567  0.010503829    109.29116    337.85146 
   63300    680.99171    0.2570651    7.5932895  0.048029387         0.02    3.8537422  0.010245018    108.15405    336.93717 
   63400     681.9936   0.25699447    7.6047593  0.048029387         0.02    3.8945958  0.010000296    108.29779    336.02214 
   63500    682.97515   0.25677861    7.6164487  0.048029387         0.02    4.0072027 0.0094329026    108.77759    335.10475 
   63600    683.93922   0.25758348    7.6268046  0.048029387         0.02     3.931632 0.0094533329    109.40008    334.18435 
   63700    684.90409   0.25707046    7.6383607  0.048029387         0.02    3.7313831 0.0097810255     110.6152    333.25825 
   63800     685.9273    0.2566824    7.6510916  0.048029387         0.02    4.3484765  0.010568739    109.64623    332.33676 
   63900    686.92624    0.2576886    7.6626134  0.048029387         0.02     4.502768 0.0091742218    109.01749    331.41826 
   64000    687.85378   0.25693816     7.673165  0.048029387         0.02    4.2414969 0.0092305576    108.92451    330.50021 
   64100    688.77659   0.25917016    7.6836251  0.048029387         0.02    4.5044212 0.0092358413    110.75436    329.57367 
   64200    689.68922   0.25718087    7.6954262  0.048029387         0.02    4.4969254  0.010462077    107.62513    328.66183 
   64300    690.61277   0.25689337    7.7058674  0.048029387         0.02    4.4057324 0.0091878182    109.38861    327.74163 
   64400    691.54815   0.25802188    7.7166402  0.048029387         0.02    4.3773983 0.0094700763    108.06522    326.82764 
   64500    692.51349   0.25732902    7.7287952  0.048029387         0.02     4.353683 0.0097073155     109.2716    325.90798 
   64600    693.49461   0.25804716    7.7391893  0.048029387         0.02    4.3998576  0.008125381    112.18787    324.97531 
   64700    694.30876   0.25727142    7.7477153  0.048029387         0.02    4.4593854 0.0081450384    110.19695    324.05155 
   64800    695.15007    0.2576626    7.7568446  0.048029387         0.02    4.4696073 0.0090387487     109.1976    323.13235 
   64900    696.05205   0.25780785    7.7662134  0.048029387         0.02    4.2723769  0.010587307    108.08558    322.21825 
   65000    697.12183   0.25732089     7.777722  0.048029387         0.02    3.9774371  0.010718398    109.84883    321.29613 
   65100     698.1761   0.25746105     7.789761  0.048029387         0.02    4.0395292   0.01049104    107.48617    320.38477 
   65200    699.23234   0.25847518    7.8006939  0.048029387         0.02    4.3018567  0.010825097    109.02452    319.46634 
   65300     700.2854   0.25829788    7.8122137  0.048029387         0.02     4.333598  0.010217189    108.71658     318.5493 
   65400    701.35176   0.25820675    7.8235047  0.048029387         0.02    4.4473585  0.011126766    110.58718    317.62402 
   65500    702.45684   0.25926787    7.8356306  0.048029387         0.02    4.5124137  0.010968183    107.01516     316.7147 
   65600    703.52921   0.25877436    7.8475991  0.048029387         0.02    4.5905708  0.010643079     107.7224    315.80208 
   65700    704.57404   0.25751599    7.8596581  0.048029387         0.02    4.0005514  0.010337005    109.18439    314.88293 
   65800    705.50523   0.25845978    7.8702254  0.048029387         0.02     4.005896 0.0091056307    108.25944    313.96786 
   65900    706.41301   0.25837273    7.8798484  0.048029387         0.02    3.9325598 0.0090506195     108.7603    313.05056 
   66000    707.30094   0.25878456    7.8896634  0.048029387         0.02    4.3513829 0.0086743327    107.55059    312.13858 
   66100     708.1858    0.2585706    7.8999585  0.048029387         0.02    4.3830204  0.011034381     109.4214    311.21839 
   66200    709.28031   0.25906148    7.9121911  0.048029387         0.02    4.5314906  0.010800175    107.84671    310.30504 
   66300     710.2932   0.25959189    7.9234086  0.048029387         0.02    4.5095772 0.0096379954    113.16584    309.36949 
   66400    711.25718   0.25812442    7.9344868  0.048029387         0.02    4.5594553  0.010142824    108.09794    308.45506 
   66500    712.26649   0.25844812    7.9438761  0.048029387         0.02    4.5908297  0.010395919    110.21116    307.53166 
   66600    713.28323   0.25799864    7.9541099  0.048029387         0.02    4.7082372  0.010414169    110.55637    306.60689 
   66700    714.33224   0.25791143    7.9653716  0.048029387         0.02    4.9246848 0.0099016509    111.61862    305.67789 
   66800    715.29277   0.25897081    7.9750249  0.048029387         0.02    4.2894989 0.0097595079    108.79023    304.76056 
   66900    716.31663   0.25751039    7.9851226  0.048029387         0.02    4.1232607  0.010334761    109.39124    303.84072 
   67000     717.3703   0.25751716    7.9964899  0.048029387         0.02    4.3078887  0.010480621    108.00547    302.92668 
   67100    718.35103   0.25811846    8.0057523  0.048029387         0.02    4.3962844 0.0097541269    108.07516    302.01231 
   67200    719.32473    0.2586089    8.0151586  0.048029387         0.02     4.596163 0.0095485964    109.07578    301.09377 
   67300    720.31503   0.25810879    8.0251927  0.048029387         0.02    4.5460438 0.0099468123    109.34339    300.17414 
   67400    721.29036   0.25744287    8.0342483  0.048029387         0.02     4.600109 0.0097961116    106.41299     299.2667 
   67500    722.29952   0.25843777    8.0449091  0.048029387         0.02     4.430253  0.010159288    109.97239    298.34453 
   67600     723.3181   0.25789455    8.0557309  0.048029387         0.02    4.4235693  0.010323086    110.14211    297.42172 
   67700    724.32658    0.2582071    8.0662153  0.048029387         0.02    3.8299123 0.0099337481    107.96583    296.50769 
   67800    725.43038   0.25814399    8.0780392  0.048029387         0.02    4.0253517  0.011379262     110.9569    295.58176 
   67900    726.52065   0.25774976     8.091563  0.048029387         0.02    4.2809281   0.01052353    110.08025     294.6593 
   68000    727.59783   0.25949258    8.1023716  0.048029387         0.02    4.2304686  0.010252163    110.16227    293.73657 
   68100    728.62796   0.25824793    8.1147063  0.048029387         0.02    4.5183306  0.010167109    107.83356    292.82306 
   68200    729.68468    0.2579147    8.1261766  0.048029387         0.02    4.4959184  0.010757354    108.46857    291.90697 
   68300    730.80307    0.2577778    8.1383937  0.048029387         0.02    4.1233583  0.011444255    111.13877    290.98059 
   68400    731.92089   0.25714873    8.1515811  0.048029387         0.02      4.26188  0.011030383    105.94925    290.07465 
   68500    733.01723   0.25772925    8.1640755  0.048029387         0.02    3.8410259  0.011702322    108.23508    289.15943 
   68600    734.13317   0.25775895    8.1769154  0.048029387         0.02    3.9573275  0.011490504    110.60981    288.23511 
   68700    735.26181   0.25800876    8.1906931  0.048029387         0.02    3.9384333  0.011308647    111.93631    287.30597 
   68800    736.35135   0.25797937    8.2032519  0.048029387         0.02    3.9841411 0.0099178107    108.96345    286.38798 
   68900     737.3135   0.25740711    8.2149547  0.048029387         0.02    5.1341368 0.0087044378    109.34005    285.46856 
   69000    738.21465   0.25808899    8.2256598  0.048029387         0.02    4.4674314 0.0090535264    108.06792      284.554 
   69100    739.17358   0.25786779    8.2375505  0.048029387         0.02    4.1908368  0.010613127     109.6846    283.63331 
   69200      740.218   0.25777046    8.2492885  0.048029387         0.02    4.1476863   0.01035549    108.13802    282.71844 
   69300    741.24738    0.2567863    8.2615182  0.048029387         0.02    4.6289505 0.0099349047    108.47284    281.80228 
   69400    742.24288   0.25798923    8.2727831  0.048029387         0.02    3.9160068  0.010008708    111.97065    280.87341 
   69500    743.20894   0.25531584    8.2844275  0.048029387         0.02    4.6707254 0.0095131931    108.84545     279.9559 
   69600     744.2806   0.25746766    8.2955678  0.048029387         0.02    4.3100448  0.011026101    108.95417    279.03798 
   69700    745.34234   0.25611845    8.3066666  0.048029387         0.02    3.6629058  0.010658894    107.42789    278.12573 
   69800     746.4071   0.25675837    8.3173554  0.048029387         0.02    3.7966578   0.01061945    108.22793    277.21045 
   69900    747.45717   0.25693174    8.3295187  0.048029387         0.02    3.8782871  0.011227853    108.31935    276.29481 
   70000    748.56872   0.25724339     8.340733  0.048029387         0.02     3.770795  0.011422113     102.0505    275.40345 
   70100    749.66804    0.2580324    8.3531802  0.048029387         0.02    4.3691654  0.010594252     110.1118    274.48124 
   70200    750.72717   0.25634216    8.3656603  0.048029387         0.02     4.321913  0.010539966    109.78368    273.56022 
   70300    751.80547    0.2568256    8.3780043  0.048029387         0.02    3.7591731  0.010777672     107.6823    272.64674 
   70400     752.8532   0.25785672    8.3904101  0.048029387         0.02    3.8983819  0.010430231    109.16981     271.7279 
   70500    753.87178   0.25686253    8.4028475  0.048029387         0.02    4.4525259  0.010012791    107.65087    270.81447 
   70600    754.87045   0.25745316    8.4132503  0.048029387         0.02    4.0674662  0.010175162    108.31583    269.89863 
   70700    755.84006   0.25716909    8.4240005  0.048029387         0.02    4.1211415  0.010317062    110.09386    268.97658 
   70800    756.86362   0.25728177    8.4347616  0.048029387         0.02    4.2956106   0.01036355    110.11227    268.05451 
   70900    757.86401   0.25632973    8.4459203  0.048029387         0.02    3.8330847  0.010963081    109.36311    267.13504 
   71000    758.93426   0.25651081    8.4562274  0.048029387         0.02    5.1919465 0.0095387775    105.51318     266.2292 
   71100    759.89535   0.25668514    8.4660676  0.048029387         0.02    5.0077752 0.0099298689    98.716101    265.34977 
   71200    760.88382   0.25605027    8.4755371  0.048029387         0.02    5.0992762 0.0097675092    96.949188    264.47744 
   71300     761.9139   0.25765982    8.4863838  0.048029387         0.02    4.3280402  0.010926695    104.19293    263.57579 
   71400    762.98457   0.25717745     8.498245  0.048029387         0.02    4.2087958  0.010395072    107.64601    262.66165 
   71500    764.06404   0.25780126    8.5092192  0.048029387         0.02    3.8117144  0.011093357    110.28726     261.7386 
   71600    765.13889   0.25697641      8.51952  0.048029387         0.02    4.4178849  0.010753261    108.59144    260.82121 
   71700    766.24433   0.25698046    8.5303577  0.048029387         0.02    4.1028249  0.010524199    110.29321     259.8982 
   71800    767.35315   0.25626622    8.5412455  0.048029387         0.02    3.6494333  0.010795019    109.79649    258.97685 
   71900    768.48936   0.25714488    8.5521287  0.048029387         0.02    3.8510677  0.010609334    111.71548    258.04942 
   72000    769.62206   0.25639226    8.5630092  0.048029387         0.02    3.9011922   0.01089207    107.62421    257.13531 
   72100    770.71755   0.25784709    8.5738007  0.048029387         0.02    3.7604019  0.010556442    105.34942    256.22892 
   72200    771.79791   0.25763458    8.5845441  0.048029387         0.02    3.6242955  0.010623948    106.98448    255.31682 
   72300     772.8732   0.25720306    8.5945764  0.048029387         0.02    3.7694848  0.010975686    108.57586    254.39942 
   72400    773.86443   0.25806301    8.6043772  0.048029387         0.02    3.8639186 0.0097230823    110.30066    253.47651 
   72500    774.85103   0.25832688    8.6137693  0.048029387         0.02    4.4639398 0.0096395214     112.5851    252.54667 
   72600    775.87142   0.25714233    8.6245214  0.048029387         0.02    4.3205161 0.0099024069    111.88346    251.61905 
   72700    776.91456   0.25782718    8.6348811  0.048029387         0.02    4.2396273  0.010471163    111.06597    250.69399 
   72800    777.97927   0.25762713    8.6452622  0.048029387         0.02    4.3991412  0.010612095    109.55087    249.77365 
   72900    779.00352   0.25616667    8.6546193  0.048029387         0.02      4.29641  0.010662538    109.86546    248.85236 
   73000    780.07977   0.25748345    8.6649017  0.048029387         0.02    4.5596833  0.010913283    108.48788    247.93538 
   73100     781.1038   0.25625235    8.6745543  0.048029387         0.02    4.2022923  0.010568416     111.7211    247.00856 
   73200    782.08391   0.25724349    8.6841059  0.048029387         0.02    4.2197855 0.0096624024    106.10127    246.09919 
   73300     783.0464    0.2567949    8.6941898  0.048029387         0.02    4.3469633 0.0097112657    100.56366    245.20864 
   73400    784.01612   0.25773351    8.7038302  0.048029387         0.02    4.5659008 0.0096019504    103.08746    244.30898 
   73500    784.97176   0.25685801    8.7135406  0.048029387         0.02    3.9047595 0.0098565578    110.54084    243.38554 
   73600    785.95815   0.25714483    8.7235623  0.048029387         0.02    3.8401008 0.0099387862    107.59862    242.47103 
   73700    786.97552   0.25775771    8.7339713  0.048029387         0.02    4.5574526  0.010188617    111.71063    241.54427 
   73800    787.95149   0.25632961    8.7440759  0.048029387         0.02    4.9289069 0.0096196827    112.32674    240.61586 
   73900    788.92616   0.25625595    8.7554265  0.048029387         0.02    4.1733506  0.010636268    109.58556    239.69541 
   74000     789.9936   0.25627454    8.7665604  0.048029387         0.02    4.2270059  0.010778131    109.48801    238.77527 
   74100    791.05723   0.25764085     8.778252  0.048029387         0.02    4.3178713   0.01073097    108.91691    237.85682 
   74200    792.13011   0.25740457    8.7912566  0.048029387         0.02    4.0454432  0.011696448    109.08505    236.93788 
   74300    793.21683   0.25697695    8.8023244  0.048029387         0.02    4.3171613 0.0099606164    101.04193    236.04419 
   74400    794.31595   0.25737414    8.8123028  0.048029387         0.02    3.7273007  0.011510339    110.43306    235.12128 
   74500    795.43962   0.25750318    8.8240286  0.048029387         0.02     3.877464  0.011289455    108.01073    234.20536 
   74600     796.5464   0.25672574    8.8359661  0.048029387         0.02    3.8638859  0.011577095    109.27433    233.28578 
   74700    797.68876   0.25707824    8.8475851  0.048029387         0.02    3.8507089  0.011217081    110.36785    232.36314 
   74800    798.76865   0.25812114    8.8580731  0.048029387         0.02    4.0508439  0.010990181     110.6438    231.43977 
   74900    799.86362   0.25616878     8.869145  0.048029387         0.02    4.2119862  0.010651786    108.10811    230.52357 
   75000    800.93309   0.25668317    8.8798233  0.048029387         0.02    4.2806568  0.010414905     107.6388    229.60869 
   75100     801.9811   0.25785682    8.8901565  0.048029387         0.02     4.165938 0.0099797035    107.37174    228.69453 
   75200    803.05515   0.25671967    8.9015048  0.048029387         0.02    4.5571777  0.010391318    109.13669    227.77537 
   75300    804.08996   0.25674344    8.9128208  0.048029387         0.02    4.1939921  0.010140127    110.66759    226.85205 
   75400    805.17728   0.25758243    8.9248852  0.048029387         0.02    4.3162545   0.01022859    99.816327    225.96083 
   75500    806.27241   0.25802092    8.9371623  0.048029387         0.02    3.8855095  0.010754835    99.753109    225.06953 
   75600    807.30536   0.25728091    8.9485381  0.048029387         0.02    4.1214636  0.010404621    102.45345     224.1694 
   75700    808.27861   0.25730314    8.9588259  0.048029387         0.02     4.278408 0.0093284908    109.23554    223.24963 
   75800    809.20428   0.25603582     8.969047  0.048029387         0.02     4.588582 0.0094880875    110.13277    222.32748 
   75900    810.16863   0.25588085    8.9794752  0.048029387         0.02    4.4628643 0.0095330717    110.71769    221.40385 
   76000    811.18195   0.25704687    8.9901143  0.048029387         0.02    4.6290926  0.010312399    107.41648    220.48903 
   76100    812.20992   0.25627894    9.0012224  0.048029387         0.02    4.2312268  0.010892157    110.04755    219.56718 
   76200     813.2973   0.25604788    9.0130229  0.048029387         0.02    4.1841378  0.011007645    109.29045    218.64734 
   76300    814.38716   0.25689587    9.0238391  0.048029387         0.02    4.1645476  0.011066568     108.5219    217.72952 
   76400    815.48029   0.25693341    9.0354766  0.048029387         0.02    4.2396725  0.010936555    107.33335    216.81484 
   76500    816.52442   0.25700727    9.0451608  0.048029387         0.02    4.3373211  0.010903475    105.21531    215.90588 
   76600    817.61846   0.25750536    9.0563846  0.048029387         0.02    4.2600904  0.010032584    107.66535     214.9902 
   76700    818.62587   0.25759756    9.0665975  0.048029387         0.02    4.9549361  0.009268234    108.58221    214.07211 
   76800    819.55818   0.25795056    9.0758038  0.048029387         0.02    4.9777879 0.0093030576    109.86126    213.15077 
   76900    820.49322   0.25614194    9.0851214  0.048029387         0.02    4.5804052  0.010555627    108.27481    212.23346 
   77000    821.57928   0.25766537     9.095544  0.048029387         0.02    4.6454613  0.010749278    107.25044    211.31878 
   77100    822.62531   0.25706648    9.1060801  0.048029387         0.02    4.1404724  0.010164377    109.14123    210.39925 
   77200    823.63775   0.25774363    9.1163097  0.048029387         0.02    4.9076584  0.010052107    111.29649    209.47449 
   77300    824.66085   0.25719153     9.126048  0.048029387         0.02    4.0514642  0.011244374    110.75424    208.55108 
   77400    825.70405    0.2577797    9.1377069  0.048029387         0.02    4.6360866 0.0099576979    112.31651    207.62407 
   77500    826.77812   0.25682375    9.1485576  0.048029387         0.02    4.3922436  0.011028434    107.65446    206.70834 
   77600     827.8107   0.25804859    9.1588303  0.048029387         0.02    4.8588564   0.00953074    109.25509    205.78865 
   77700    828.74229   0.25692909    9.1674316  0.048029387         0.02    4.9202496 0.0093803273    109.13981    204.86925 
   77800    829.66745   0.25777185    9.1766386  0.048029387         0.02    4.3150733 0.0089821501    111.28917    203.94481 
   77900    830.57885   0.25703572    9.1847484  0.048029387         0.02    4.3581918 0.0091545046    111.19797    203.02064 
   78000    831.45731   0.25694862    9.1932961  0.048029387         0.02    5.8809515 0.0082884708       107.19    202.10603 
   78100    832.28021   0.25730926    9.2008745  0.048029387         0.02    5.9645536 0.0082463474    108.65667    201.18783 
   78200    833.09649   0.25836368    9.2089107  0.048029387         0.02     5.360878   0.00858545    108.76777    200.26936 
   78300    833.99156   0.25758668    9.2186719  0.048029387         0.02    4.0956023  0.010404331    111.51626    199.34462 
   78400    835.04058   0.25679694    9.2293158  0.048029387         0.02    3.8770939  0.010610801     110.5494     198.4221 
   78500    836.05207   0.25751848    9.2391034  0.048029387         0.02    4.1890034  0.010224062    109.44247    197.50214 
   78600    837.09271   0.25763175    9.2492698  0.048029387         0.02    4.1182372  0.010793987    110.04163    196.58084 
   78700    838.18147    0.2563376    9.2602885  0.048029387         0.02    4.0102214  0.010374383    108.36774    195.66337 
   78800     839.2514   0.25655292     9.270239  0.048029387         0.02     4.615862  0.010273491    107.40146    194.74812 
   78900    840.26814   0.25635974    9.2804215  0.048029387         0.02    5.0631713 0.0096522538    109.84158     193.8273 
   79000    841.27234   0.25697436    9.2902732  0.048029387         0.02    4.5504662  0.010783072    111.22407    192.90349 
   79100    842.36003   0.25787499     9.301659  0.048029387         0.02    4.4586505  0.010944146      109.736    191.98298 
   79200    843.42483   0.25782303    9.3124979  0.048029387         0.02    4.8250506 0.0097246306    107.37322    191.06775 
   79300    844.47817    0.2580617    9.3233983  0.048029387         0.02    4.4687607  0.010433807    110.87838    190.14479 
   79400    845.50759   0.25793979    9.3339035  0.048029387         0.02    4.6008339  0.010374037    107.21883    189.22987 
   79500    846.55226   0.25674905    9.3448412  0.048029387         0.02    4.6346637  0.010660741     108.4004    188.31229 
   79600    847.58935   0.25699999    9.3557426  0.048029387         0.02    4.0252103  0.010037252    109.18783    187.39299 
   79700    848.61136   0.25686104    9.3674701  0.048029387         0.02    3.9446099 0.0099375041    107.59156    186.47716 
   79800    849.63194   0.25733326    9.3776244  0.048029387         0.02    4.1760534  0.010122838    108.11558    185.56016 
   79900    850.63592   0.25728889    9.3876441  0.048029387         0.02    4.9904766 0.0097004812    111.19266    184.63669 
   80000    851.60297   0.25736439    9.3972184  0.048029387         0.02    5.0666265 0.0096013223    108.59683    183.71866 
   80100    852.56383   0.25725542    9.4075951  0.048029387         0.02    4.9355093 0.0098528123    109.28065     182.7992 
   80200    853.55467   0.25740997    9.4182394  0.048029387         0.02    4.8768942 0.0098741446    111.10966    181.87602 
   80300    854.51022   0.25720867    9.4282159  0.048029387         0.02     5.090725 0.0097158407    109.08443      180.957 
   80400    855.47444   0.25585703    9.4391518  0.048029387         0.02    5.5131563  0.008923969    107.89359    180.04046 
   80500    856.40822   0.25709899     9.449282  0.048029387         0.02    5.1163606 0.0097533301    112.10247    179.11546 
   80600    857.41107    0.2575351     9.460399  0.048029387         0.02    3.8836305  0.010456534    108.70547    178.19725 
   80700     858.4578   0.25770973    9.4725097  0.048029387         0.02    4.2715024  0.010492977    109.21919      177.278 
   80800    859.52152   0.25850531    9.4847534  0.048029387         0.02     4.272599  0.010667038    103.65766    176.37043 
   80900    860.55907   0.25842696    9.4962109  0.048029387         0.02    4.0832691  0.010030935    107.24564     175.4551 
   81000    861.57198   0.25821048    9.5079078  0.048029387         0.02     3.958637  0.010138354    109.30919     174.5356 
   81100     862.5839   0.25856303    9.5186254  0.048029387         0.02    3.7706698 0.0097233898    107.07477    173.62057 
   81200     863.5807   0.25852601    9.5286962  0.048029387         0.02    4.4332303  0.010074026    108.57125     172.7025 
   81300    864.58827   0.25690439    9.5401414  0.048029387         0.02    4.5326342  0.010598932    109.05839    171.78348 
   81400    865.65753    0.2568802    9.5522001  0.048029387         0.02    3.9512247  0.010319136    110.13846    170.86241 
   81500    866.80676   0.25810874    9.5653686  0.048029387         0.02    4.1567521  0.011854787    111.37543    169.93909 
   81600    867.93755   0.25860238    9.5779241  0.048029387         0.02    4.2624262  0.011178336     109.9051    169.01853 
   81700    869.03933   0.25717365    9.5905123  0.048029387         0.02    4.2544631  0.011286112    112.48543    168.09333 
   81800    870.13513   0.25664772    9.6027276  0.048029387         0.02    4.1659528  0.010703994    109.51305    167.17358 
   81900    871.22258   0.25765704    9.6147604  0.048029387         0.02    4.0112121  0.010970378    102.57854     166.2675 
   82000    872.28445   0.25753249    9.6270399  0.048029387         0.02    4.1134615  0.010138801    101.96392    165.36253 
   82100    873.36702   0.25742185    9.6395653  0.048029387         0.02    4.4455149  0.010175371    109.98245    164.44179 
   82200    874.40837    0.2578809    9.6511907  0.048029387         0.02    5.1505826 0.0096696933    108.14307    163.52443 
   82300    875.40818   0.25731676    9.6626882  0.048029387         0.02    4.9632924  0.010047003    107.82647    162.60763 
   82400    876.41339   0.25718861    9.6732304  0.048029387         0.02    4.4609335   0.01025197    108.80968    161.68902 
   82500    877.41273   0.25697711    9.6846389  0.048029387         0.02    4.8597762 0.0097313781    109.01284    160.77004 
   82600    878.39941   0.25802515    9.6967353  0.048029387         0.02      4.32841  0.010234685    109.76095    159.84975 
   82700    879.41196   0.25793621     9.708206  0.048029387         0.02     4.353621   0.01038608    109.12456    158.93059 
   82800    880.46079   0.25771943    9.7205107  0.048029387         0.02      4.56563  0.010399684    110.64943    158.00882 
   82900    881.50711   0.25666939    9.7319506  0.048029387         0.02    4.6193241  0.010467663    110.20511    157.08784 
   83000    882.57492   0.25623381    9.7430142  0.048029387         0.02    4.5620667  0.010847929    100.91806      156.184 
   83100    883.64019   0.25768507    9.7550199  0.048029387         0.02    4.5718214  0.010642567    107.90664     155.2669 
   83200    884.75229   0.25751816    9.7674956  0.048029387         0.02    4.1788862   0.01112049    111.30243    154.34406 
   83300    885.84373   0.25813822     9.779782  0.048029387         0.02    4.1982147  0.010939298    110.10669    153.42324 
   83400    886.91775   0.25668183    9.7927763  0.048029387         0.02     4.256214  0.010682871    109.58771    152.50331 
   83500     887.9713   0.25790014    9.8044031  0.048029387         0.02    4.2646425    0.0106923    108.47059    151.58525 
   83600     889.0641    0.2569825    9.8171362  0.048029387         0.02    3.7794768  0.010850362    109.06004     150.6662 
   83700    890.18563   0.25678766    9.8299605  0.048029387         0.02    3.8177825  0.011707304    109.50997    149.74643 
   83800    891.32759   0.25723898     9.842468  0.048029387         0.02    4.6517393 0.0098159013    110.78036    148.82464 
   83900    892.32409   0.25736481    9.8534631  0.048029387         0.02    4.5946538  0.010069202    108.61905    147.90635 
   84000    893.37046    0.2573308    9.8648656  0.048029387         0.02     4.169402  0.010616511    107.88801    146.98924 
   84100    894.36355   0.25741492    9.8754085  0.048029387         0.02     4.319046  0.010079352    97.834433    146.09012 
   84200    895.43724   0.25625914     9.887969  0.048029387         0.02    3.9399344  0.010141257       101.85    145.18314 
   84300    896.52152   0.25669018    9.8993885  0.048029387         0.02    4.0500188  0.010027959    109.17424    144.26372 
   84400    897.57924   0.25742396    9.9115594  0.048029387         0.02    3.9666064  0.010983901     109.8534    143.34326 
   84500    898.46291   0.25696251    9.9209787  0.048029387         0.02    4.1799535 0.0086065393    110.22842    142.42225 
   84600    899.34609   0.25745415    9.9297931  0.048029387         0.02    4.2694378  0.010445144    109.09184      141.503 
   84700    900.43808     0.257121    9.9425877  0.048029387         0.02     3.901935  0.011212969    109.81745    140.58266 
   84800    901.51874   0.25731216    9.9550269  0.048029387         0.02    4.2078549 0.0099690315    109.33683    139.66306 
   84900    902.50017    0.2581633    9.9656382  0.048029387         0.02    3.8991649  0.010630455    108.40225    138.74487 
   85000    903.53889   0.25894409    9.9780071  0.048029387         0.02    4.1683458  0.010082363    109.91561    137.82443 
   85100    904.56503   0.25763951     9.989742  0.048029387         0.02    4.0586015  0.010302319    110.04501    136.90383 
   85200    905.57778   0.25725911    10.001925  0.048029387         0.02     4.784579  0.010433014    110.32718    135.98286 
   85300    906.58558   0.25680858    10.012865  0.048029387         0.02    4.8018878 0.0098720693     109.5102    135.06308 
   85400    907.59138   0.25805344    10.024646  0.048029387         0.02    4.9680614  0.010001725    109.83844    134.14286 
   85500    908.61083   0.25831588    10.037282  0.048029387         0.02    4.3117552  0.010444703    111.89474    133.21981 
   85600    909.64565   0.25763501     10.04846  0.048029387         0.02    4.2051693  0.010515615     108.2305    132.30193 
   85700    910.68925   0.25722735    10.059598  0.048029387         0.02    4.3793256  0.011068243    108.00175    131.38436 
   85800    911.65047   0.25697559    10.070107  0.048029387         0.02    4.8491218 0.0089873699    108.67131    130.46583 
   85900    912.63195   0.25626364    10.080973  0.048029387         0.02    4.5978708 0.0096598837    109.36337    129.54633 
   86000    913.63451   0.25624653    10.091428  0.048029387         0.02    4.4668904   0.01084862    107.04862    128.63007 
   86100    914.67428    0.2578339    10.102615  0.048029387         0.02    4.5375996  0.010829861      110.081    127.70961 
   86200       915.75   0.25739575    10.114714  0.048029387         0.02     4.576766  0.010749302    102.89887    126.79933 
   86300    916.78881   0.25679074    10.126614  0.048029387         0.02    4.5971926  0.010383152    98.966005    125.89504 
   86400    917.78395   0.25703084    10.136381  0.048029387         0.02    4.4995309  0.010268128    98.893366    124.99061 
   86500     918.8252   0.25647503    10.146129  0.048029387         0.02    4.4936868  0.010264723    109.42537    124.07076 
   86600    919.81122    0.2558796    10.156072  0.048029387         0.02    4.2489233 0.0094592464    108.45564    123.15218 
   86700    920.75116   0.25674557    10.165477  0.048029387         0.02    4.3296658 0.0093265388    107.94588    122.23426 
   86800    921.71108    0.2571251    10.174986  0.048029387         0.02    4.4934809  0.010004055    110.11871    121.31354 
   86900    922.73463    0.2555156    10.185755  0.048029387         0.02    4.0182543  0.010270226    111.45537    120.39121 
   87000    923.74777   0.25702158    10.196167  0.048029387         0.02    4.0437689  0.010182474     106.9497    119.47458 
   87100    924.76894   0.25656849    10.207544  0.048029387         0.02    4.3987181  0.010217821    107.15944    118.55764 
   87200    925.80939   0.25640556    10.218828  0.048029387         0.02    4.4883692  0.010085617    107.51555    117.64021 
   87300     926.8253   0.25797251    10.230087  0.048029387         0.02    4.1521127  0.010453627    110.24045    116.71941 
   87400    927.85926   0.25719761    10.241177  0.048029387         0.02    4.2157425  0.010688688      107.875     115.8015 
   87500    928.89171   0.25646399    10.252119  0.048029387         0.02    4.2887867  0.010211348     109.1142    114.88208 
   87600    929.92743   0.25693089     10.26329  0.048029387         0.02    4.3338326 0.0098214455    109.89784    113.96173 
   87700    930.93023   0.25635479    10.273807  0.048029387         0.02    3.9242821  0.010459426    109.72635     113.0416 
   87800    931.96845   0.25713719    10.285151  0.048029387         0.02    4.3365256  0.010715389    109.90703    112.12129 
   87900    933.01506   0.25616489    10.297261  0.048029387         0.02    3.7755271    0.0103302    109.10847    111.20192 
   88000    934.04415   0.25610012    10.308881  0.048029387         0.02    3.7815687  0.010631776     106.7514    110.28531 
   88100    935.14275   0.25658752    10.321582  0.048029387         0.02    3.8749827  0.010570344     106.8585    109.36853 
   88200    936.22739   0.25751869    10.333222  0.048029387         0.02     4.096541   0.01051166    110.71731    108.44735 
   88300    937.29836   0.25673164    10.345682  0.048029387         0.02    4.3134377  0.010491862    109.13873    107.52793 
   88400    938.40726   0.25599857    10.357984  0.048029387         0.02    3.8248553  0.011352626    107.97364    106.60982 
   88500    939.48622   0.25669776    10.369835  0.048029387         0.02     3.972893  0.011521947     109.3384     105.6902 
   88600    940.55545   0.25837034    10.381902  0.048029387         0.02    4.1411198  0.010822454    111.04115    104.76877 
   88700    941.65165   0.25805797    10.394676  0.048029387         0.02    4.1788732  0.011276795     110.6295    103.84782 
   88800    942.76749   0.25716689    10.406632  0.048029387         0.02    4.4583556  0.011018437    109.41863    102.92817 
   88900    943.81325   0.25727192    10.418525  0.048029387         0.02    4.2795689 0.0099427274    110.38113    102.00754 
   89000    944.82596   0.25721257    10.428359  0.048029387         0.02    4.9939037 0.0099664581    108.22265    101.08918 
   89100    945.82032   0.25762922    10.439583  0.048029387         0.02    5.0238736 0.0098770042    107.84962    100.17119 
   89200    946.79031   0.25738668    10.449625  0.048029387         0.02    4.5147226 0.0099063124    109.10208    99.251897 
   89300    947.76478    0.2579698    10.459622  0.048029387         0.02    3.7747326 0.0097692254    107.70975    98.334027 
   89400    948.80168   0.25640845    10.470327  0.048029387         0.02    4.4261762  0.010250915    109.52567    97.414308 
   89500    949.83109   0.25791487    10.480518  0.048029387         0.02    4.1769706 0.0097979964    109.53021      96.4946 
   89600    950.84267   0.25884548    10.490934  0.048029387         0.02    4.2823203  0.010121398    108.43271    95.575979 
   89700    951.85747   0.25718084    10.501728  0.048029387         0.02    4.0105934  0.010240588    108.69305    94.657097 
   89800    952.90163   0.25729637    10.512925  0.048029387         0.02    4.4712296  0.010348369    109.35832    93.737576 
   89900    953.92104   0.25710273    10.524141  0.048029387         0.02    4.0467556  0.010505149    109.47004    92.817962 
   90000    954.97301   0.25796536    10.535122  0.048029387         0.02    3.7396787  0.010820252    107.07947    91.900627 
   90100     956.0548   0.25840086    10.545943  0.048029387         0.02    4.2304667 0.0087954829    106.66482    90.983655 
   90200    956.94449   0.25752032    10.556345  0.048029387         0.02    4.0718307 0.0089985628    109.91006    90.063629 
   90300    957.82991   0.25716936    10.566933  0.048029387         0.02    4.5054862 0.0098185331    106.37901     89.14687 
   90400    958.83478   0.25748208    10.578768  0.048029387         0.02    4.9725361 0.0099413683     110.7978    88.226079 
   90500    959.85073   0.25621199    10.590508  0.048029387         0.02    4.8744359  0.009801689     108.7427    87.307118 
   90600    960.85244    0.2568088    10.600853  0.048029387         0.02    4.2914731  0.010147861    108.57645    86.388302 
   90700    961.86949   0.25653697    10.613032  0.048029387         0.02    4.3348137  0.010164334    111.51653    85.466991 
   90800    962.85852   0.25576775    10.624441  0.048029387         0.02    4.5474362 0.0096627572    109.16495    84.547692 
   90900    963.83595    0.2556058    10.636289  0.048029387         0.02    4.1184185  0.010311597    103.71431    83.633219 
   91000    964.86468   0.25706706    10.648004  0.048029387         0.02    3.8818021  0.010460231    98.094247    82.724101 
   91100    965.90923   0.25736709    10.660065  0.048029387         0.02    4.2384927  0.010139244    107.19836    81.806282 
   91200    966.93921   0.25633041    10.672575  0.048029387         0.02    3.9600614  0.010432806    109.92296    80.886199 
   91300    967.99715   0.25693391    10.683723  0.048029387         0.02    3.9519639  0.010433193    110.82433    79.965434 
   91400    969.09993   0.25597182    10.697026  0.048029387         0.02    4.4385403  0.011062141    110.58277    79.044894 
   91500    970.19839   0.25589763    10.709435  0.048029387         0.02    3.6930117 0.0098076621    110.64689    78.124342 
   91600     971.2195   0.25718937    10.719704  0.048029387         0.02    3.8712605 0.0099378954     109.4481    77.204733 
   91700    972.21937   0.25778072    10.730963  0.048029387         0.02    3.8309112  0.010553338    109.30967    76.285243 
   91800    973.30655   0.25596333    10.744441  0.048029387         0.02    3.9238903  0.010129228    108.14658    75.366641 
   91900    974.38433   0.25690686    10.755937  0.048029387         0.02    4.0308068  0.010939491    108.73253    74.447587 
   92000    975.45921   0.25586448    10.768222  0.048029387         0.02    4.1945757 0.0095960767     108.1516    73.528961 
   92100    976.43372   0.25666119    10.778012  0.048029387         0.02    3.7178673  0.010470852    107.21976    72.611012 
   92200    977.52581   0.25720317    10.789987  0.048029387         0.02     4.381187  0.010589136    110.47122    71.690708 
   92300    978.59344   0.25667002    10.802206  0.048029387         0.02    4.1564725  0.010916581    110.95394    70.770108 
   92400    979.63419   0.25734068    10.813873  0.048029387         0.02    4.7862174 0.0096570364    109.82447    69.850313 
   92500    980.59337    0.2576901    10.824469  0.048029387         0.02    4.4890607 0.0094792998    108.80505    68.931229 
   92600    981.55815   0.25804846    10.835147  0.048029387         0.02     4.784908 0.0095425212    109.39483    68.011749 
   92700    982.50347   0.25699397    10.845497  0.048029387         0.02    4.2646776  0.010443554    108.96331    67.092566 
   92800    983.46238   0.25561604    10.855651  0.048029387         0.02    4.2272862 0.0090893282    109.45338    66.173068 
   92900    984.38298   0.25643645    10.865417  0.048029387         0.02    4.1222882 0.0094116492    108.54535    65.254166 
   93000    985.34371   0.25665194    10.876479  0.048029387         0.02    3.8685143 0.0097670526    108.20472    64.335477 
   93100    986.34559   0.25691042    10.886817  0.048029387         0.02    4.2773226  0.010010339    107.56598    63.417183 
   93200    987.38936   0.25648085    10.897844  0.048029387         0.02    3.9697606  0.010738132     109.4262    62.497712 
   93300    988.49051   0.25914745    10.909405  0.048029387         0.02    4.3698147  0.010151097     110.4139    61.577665 
   93400    989.59419   0.25853367    10.921572  0.048029387         0.02    4.1862082  0.011256886    109.98727    60.657898 
   93500    990.65959    0.2559422    10.934217  0.048029387         0.02    4.2940964  0.011007828    110.33351    59.737955 
   93600    991.75092   0.25665097    10.945075  0.048029387         0.02    4.3139707  0.011178706    109.96904    58.818246 
   93700    992.85578   0.25610545    10.957694  0.048029387         0.02    4.4957506  0.010566893    108.88264     57.89917 
   93800    993.92875   0.25746067    10.968561  0.048029387         0.02    4.1707069  0.010398634    109.28831    56.979869 
   93900    994.93033   0.25656484    10.979395  0.048029387         0.02    3.9108128  0.010761231    109.05635    56.060705 
   94000    996.02361   0.25775468    10.991454  0.048029387         0.02    4.2627468  0.010302296     108.3911    55.141904 
   94100    997.04069   0.25819021    11.001552  0.048029387         0.02    4.2305051  0.010586568    108.64736    54.222958 
   94200    998.08576   0.25630767    11.011941  0.048029387         0.02    4.3135251  0.010481655    109.99465    53.303316 
   94300    999.11085   0.25704091    11.021773  0.048029387         0.02    4.3799914 0.0096998527    108.16541    52.384625 
   94400    1000.2186   0.25635132    11.032103  0.048029387         0.02    4.2046213  0.010675518    109.86719    51.465072 
   94500    1001.3358   0.25613953    11.043064  0.048029387         0.02    4.1452586  0.011032143    109.52469    50.545704 
   94600    1002.4176   0.25734305     11.05348  0.048029387         0.02    3.9265003  0.010062445    109.63712    49.626297 
   94700    1003.4114    0.2558385    11.063493  0.048029387         0.02     4.005727   0.00940237    108.12798    48.707618 
   94800    1004.2882    0.2564364    11.072852  0.048029387         0.02    4.4008877 0.0084770798    107.69247     47.78913 
   94900    1005.1784    0.2580998    11.081644  0.048029387         0.02    4.5220754 0.0097974411    110.25772    46.869461 
   95000    1006.1531   0.25867623    11.091229  0.048029387         0.02    3.7815178 0.0095991703     105.3864    45.952024 
   95100    1007.1204   0.25771827    11.101997  0.048029387         0.02    4.0508627 0.0099141403    96.541025    45.039001 
   95200    1008.0572   0.25729595    11.111293  0.048029387         0.02    4.2043493  0.009436344    110.72933    44.119028 
   95300    1008.9972   0.25828278    11.120733  0.048029387         0.02    4.3274655 0.0096234491    107.17885    43.200566 
   95400    1009.9607   0.25670588    11.130155  0.048029387         0.02    4.3635189 0.0097118668    110.17341     42.28085 
   95500    1010.9368   0.25750156    11.139241  0.048029387         0.02    4.6838277 0.0096378266    108.39014    41.361864 
   95600    1011.8861   0.25745332    11.148904  0.048029387         0.02    4.2635033 0.0093693158    108.06152    40.442999 
   95700    1012.9246   0.25808134    11.159613  0.048029387         0.02    4.1071774  0.010802948    109.15384    39.523704 
   95800    1013.9832   0.25738023    11.169988  0.048029387         0.02    4.0292752  0.010377981    103.56503    38.606583 
   95900    1015.0376   0.25705718    11.180247  0.048029387         0.02    3.8239602  0.010662905    98.488497    37.691489 
   96000    1016.0784   0.25813886    11.190077  0.048029387         0.02    4.1841525 0.0093171429    101.18692    36.775058 
   96100    1017.0761     0.256473    11.199192  0.048029387         0.02    4.3669204  0.010083553    109.18711    35.855539 
   96200    1018.1246   0.25715294    11.209742  0.048029387         0.02    4.2557698  0.010731639    110.48184    34.935603 
   96300    1019.1982   0.25669264    11.219641  0.048029387         0.02     3.803641   0.01071123    109.41387    34.016038 
   96400     1020.257   0.25757573    11.229725  0.048029387         0.02     3.792911  0.010476196    108.80375    33.096676 
   96500    1021.2543   0.25724878    11.240577  0.048029387         0.02    4.4440873 0.0096701801    109.60707     32.17707 
   96600    1022.2123   0.25728254    11.250113  0.048029387         0.02    4.4414953  0.009837975    108.87718    31.257694 
   96700    1023.2106   0.25742758    11.260277  0.048029387         0.02    4.1825049  0.010097199    106.99182    30.338872 
   96800    1024.2228   0.25749296    11.271121  0.048029387         0.02    4.1957972  0.010825909    108.28358    29.419649 
   96900    1025.2855    0.2574971    11.281932  0.048029387         0.02    3.9670296  0.010732291     109.6846     28.50004 
   97000    1026.3128   0.25810924    11.291983  0.048029387         0.02    4.2814218 0.0095644752    104.73289    27.581781 
   97100    1027.2973   0.25735444    11.301792  0.048029387         0.02     4.293627  0.010729519    110.00674    26.662079 
   97200    1028.3247    0.2577647    11.312847  0.048029387         0.02    4.3379315  0.010442193    111.07941    25.742146 
   97300    1029.3738   0.25727354    11.323325  0.048029387         0.02    4.0935448  0.010876524    109.13123    24.822699 
   97400    1030.4368   0.25664889    11.334373  0.048029387         0.02    4.2741627  0.010594435    109.60896    23.903152 
   97500    1031.4951   0.25665789    11.345501  0.048029387         0.02    4.2334244  0.010594568    109.31688    22.983683 
   97600    1032.5322   0.25729493    11.356067  0.048029387         0.02    3.9861496  0.010460193    107.92119    22.064514 
   97700    1033.5772   0.25748583    11.365949  0.048029387         0.02    4.0266133  0.010434744    108.77144    21.145159 
   97800    1034.6797   0.25815708    11.376237  0.048029387         0.02    4.1255078  0.010709547    108.45304    20.225865 
   97900    1035.8211   0.25779274    11.386968  0.048029387         0.02    3.7794499  0.011826304    108.82602    19.306498 
   98000    1036.9201   0.25765834    11.398741  0.048029387         0.02    4.0010182  0.011534274    99.761674    18.388836 
   98100    1038.0459    0.2575529     11.40966  0.048029387         0.02    4.0224458  0.010384539    98.330933    17.471283 
   98200    1039.0907   0.25734087    11.420058  0.048029387         0.02    3.9968939  0.010400974    106.33602    16.552124 
   98300    1040.0933   0.25701862    11.431149  0.048029387         0.02    3.9440836  0.010398475    109.18569    15.632498 
   98400    1041.1115   0.25745812    11.441596  0.048029387         0.02    4.1879043 0.0095650425    106.84023    14.713206 
   98500    1042.1925   0.25553271    11.452505  0.048029387         0.02    4.1544023  0.011262131    112.26153    13.793192 
   98600    1043.2376   0.25768874    11.462021  0.048029387         0.02    4.1956536   0.01076345    108.50199    12.873676 
   98700    1044.2857   0.25709916    11.472404  0.048029387         0.02    4.0477658   0.01000455    108.82614    11.954119 
   98800    1045.2255   0.25697256    11.481879  0.048029387         0.02    4.2084541 0.0090057455    110.57604    11.034387 
   98900    1046.1531   0.25720574    11.491133  0.048029387         0.02     4.168748 0.0092406091     107.6116    10.114963 
   99000    1047.0802   0.25706447    11.500011  0.048029387         0.02    4.2892039 0.0089912577    106.47631    9.1956192 
   99100    1047.9946   0.25868291    11.508578  0.048029387         0.02    4.2950376  0.009200926    108.68809    8.2760618 
   99200    1048.9067   0.25707523    11.517698  0.048029387         0.02    3.9616359 0.0089831341    109.12456    7.3564737 
   99300     1049.854   0.25723144    11.527241  0.048029387         0.02    4.8896625 0.0098439987    109.69484    6.4368586 
   99400    1050.8407   0.25732886    11.536649  0.048029387         0.02    3.8911716   0.01036178    106.99982    5.5173981 
   99500    1051.8806   0.25724767    11.547096  0.048029387         0.02    4.1788343  0.010756587     107.5175    4.5978845 
   99600    1052.9416   0.25788033     11.55763  0.048029387         0.02    4.2486706  0.010628141    108.20285    3.6783262 
   99700    1053.9042   0.25768552    11.566793  0.048029387         0.02    5.2357164 0.0094097469    110.66184    2.7586967 
   99800    1054.8451   0.25688948    11.575688  0.048029387         0.02    4.4769203  0.010202305    109.66438    1.8391157 
   99900    1055.8611   0.25767996     11.58615  0.048029387         0.02    4.1946137  0.010477697    109.62053   0.91955053 
  100000    1056.8957   0.25711189     11.59672  0.048029387         0.02    4.0947392  0.010542424    107.17987            0 
Loop time of 919.564 on 4 procs for 100000 steps with 176267 atoms

Performance: 99054.056 tau/day, 108.747 timesteps/s
243.2% CPU use with 1 MPI tasks x 4 OpenMP threads

MPI task timing breakdown:
Section |  min time  |  avg time  |  max time  |%varavg| %total
---------------------------------------------------------------
Pair    | 348.03     | 348.03     | 348.03     |   0.0 | 37.85
Neigh   | 13.158     | 13.158     | 13.158     |   0.0 |  1.43
Comm    | 118.4      | 118.4      | 118.4      |   0.0 | 12.88
Output  | 3.0441     | 3.0441     | 3.0441     |   0.0 |  0.33
Modify  | 368.38     | 368.38     | 368.38     |   0.0 | 40.06
Other   |            | 68.55      |            |       |  7.45

Nlocal:    176267 ave 176267 max 176267 min
Histogram: 1 0 0 0 0 0 0 0 0 0
Nghost:    66712 ave 66712 max 66712 min
Histogram: 1 0 0 0 0 0 0 0 0 0
Neighs:    0 ave 0 max 0 min
Histogram: 1 0 0 0 0 0 0 0 0 0

Total # of neighbors = 0
Ave neighs/atom = 0
Neighbor list builds = 29288
Dangerous builds = 0

Please see the log.cite file for references relevant to this simulation

Total wall time: 0:15:57
